/PREP7
! ===== ICCAD2026 OIO3D GPU/EIC/aPIC transient (Coenen et al. TCPMT 2026 params) =====
MP,KXX,1,150.0 $ MP,KYY,1,150.0 $ MP,KZZ,1,150.0 $ MP,DENS,1,2330 $ MP,C,1,700
MP,KXX,2,5.0 $ MP,KYY,2,5.0 $ MP,KZZ,2,5.0 $ MP,DENS,2,2500 $ MP,C,2,800
MP,KXX,3,80.0 $ MP,KYY,3,80.0 $ MP,KZZ,3,80.0 $ MP,DENS,3,2300 $ MP,C,3,700
MP,KXX,4,2.55 $ MP,KYY,4,2.55 $ MP,KZZ,4,2.55 $ MP,DENS,4,2500 $ MP,C,4,800
ET,1,SOLID70
ESIZE,0.025/20
BLOCK,0,0.025,0,0.025,0.0,0.0007 $ VSEL,S,LOC,Z,(0.0+0.0007)/2 $ VATT,1,,1 $ VMESH,ALL $ ALLSEL
BLOCK,0,0.025,0,0.025,0.0007,0.0007023999999999999 $ VSEL,S,LOC,Z,(0.0007+0.0007023999999999999)/2 $ VATT,2,,1 $ VMESH,ALL $ ALLSEL
BLOCK,0,0.025,0,0.025,0.0007023999999999999,0.0008024 $ VSEL,S,LOC,Z,(0.0007023999999999999+0.0008024)/2 $ VATT,1,,1 $ VMESH,ALL $ ALLSEL
BLOCK,0,0.025,0,0.025,0.0008024,0.0008047999999999999 $ VSEL,S,LOC,Z,(0.0008024+0.0008047999999999999)/2 $ VATT,2,,1 $ VMESH,ALL $ ALLSEL
BLOCK,0,0.025,0,0.025,0.0008047999999999999,0.0008548 $ VSEL,S,LOC,Z,(0.0008047999999999999+0.0008548)/2 $ VATT,3,,1 $ VMESH,ALL $ ALLSEL
BLOCK,0,0.025,0,0.025,0.0008548,0.0008571999999999999 $ VSEL,S,LOC,Z,(0.0008548+0.0008571999999999999)/2 $ VATT,4,,1 $ VMESH,ALL $ ALLSEL
BLOCK,0,0.025,0,0.025,0.0008571999999999999,0.0011572 $ VSEL,S,LOC,Z,(0.0008571999999999999+0.0011572)/2 $ VATT,1,,1 $ VMESH,ALL $ ALLSEL
ALLSEL $ NUMMRG,NODE,1e-9 $ NUMCMP,NODE
VOL_XPU=4.375000000000001e-07
ESEL,S,MAT,,1 $ ESEL,R,CENT,Z,(0.0007023999999999999+0.0008024)/2 $ BFE,ALL,HGEN,1,266.25/6.250000000000001e-08 $ ALLSEL
ESEL,S,MAT,,3 $ BFE,ALL,HGEN,1,70.625/3.1250000000000005e-08 $ ALLSEL
ASEL,S,LOC,Z,0.0 $ SFA,ALL,,CONV,70000.0,45.0 $ ALLSEL
ASEL,S,LOC,Z,0.0011572 $ SFA,ALL,,CONV,16000.0000,45.0 $ ALLSEL
NMON=NODE(0.025/2,0.025/2,(0.0008047999999999999+0.0008548)/2)
FINISH

/SOLU
ANTYPE,TRANS
TRNOPT,FULL
OUTRES,ALL,ALL
TIMINT,OFF
ESEL,S,MAT,,1 $ ESEL,R,CENT,Z,(0.0+0.0007)/2 $ BFE,ALL,HGEN,1,588.0/4.375000000000001e-07 $ ALLSEL
TIME,1e-3 $ KBC,1 $ SOLVE
TIMINT,ON
ESEL,S,MAT,,1 $ ESEL,R,CENT,Z,(0.0+0.0007)/2 $ BFE,ALL,HGEN,1,588.0/4.375000000000001e-07 $ ALLSEL
TIME,0.1238541 $ KBC,1 $ AUTOTS,ON $ DELTIM,0.0154817625,0.00154817625,0.06192705 $ SOLVE
ESEL,S,MAT,,1 $ ESEL,R,CENT,Z,(0.0+0.0007)/2 $ BFE,ALL,HGEN,1,196.0/4.375000000000001e-07 $ ALLSEL
TIME,0.124514887 $ KBC,1 $ AUTOTS,ON $ DELTIM,8.259837500000124e-05,8.259837500000123e-06,0.00033039350000000495 $ SOLVE
ESEL,S,MAT,,1 $ ESEL,R,CENT,Z,(0.0+0.0007)/2 $ BFE,ALL,HGEN,1,154.0/4.375000000000001e-07 $ ALLSEL
TIME,0.474517424 $ KBC,1 $ AUTOTS,ON $ DELTIM,0.043750317125,0.0043750317125,0.1750012685 $ SOLVE
ESEL,S,MAT,,1 $ ESEL,R,CENT,Z,(0.0+0.0007)/2 $ BFE,ALL,HGEN,1,700.0/4.375000000000001e-07 $ ALLSEL
TIME,0.762267614 $ KBC,1 $ AUTOTS,ON $ DELTIM,0.035968773749999995,0.0035968773749999994,0.14387509499999998 $ SOLVE
ESEL,S,MAT,,1 $ ESEL,R,CENT,Z,(0.0+0.0007)/2 $ BFE,ALL,HGEN,1,154.0/4.375000000000001e-07 $ ALLSEL
TIME,1.11227015 $ KBC,1 $ AUTOTS,ON $ DELTIM,0.04375031700000001,0.004375031700000001,0.17500126800000004 $ SOLVE
ESEL,S,MAT,,1 $ ESEL,R,CENT,Z,(0.0+0.0007)/2 $ BFE,ALL,HGEN,1,251.99999999999997/4.375000000000001e-07 $ ALLSEL
TIME,1.114385457 $ KBC,1 $ AUTOTS,ON $ DELTIM,0.0002644133749999944,2.644133749999944e-05,0.0010576534999999776 $ SOLVE
ESEL,S,MAT,,1 $ ESEL,R,CENT,Z,(0.0+0.0007)/2 $ BFE,ALL,HGEN,1,588.0/4.375000000000001e-07 $ ALLSEL
TIME,1.238239557 $ KBC,1 $ AUTOTS,ON $ DELTIM,0.015481762499999996,0.0015481762499999995,0.061927049999999983 $ SOLVE
ESEL,S,MAT,,1 $ ESEL,R,CENT,Z,(0.0+0.0007)/2 $ BFE,ALL,HGEN,1,196.0/4.375000000000001e-07 $ ALLSEL
TIME,1.238900345 $ KBC,1 $ AUTOTS,ON $ DELTIM,8.25985000000029e-05,8.25985000000029e-06,0.0003303940000000116 $ SOLVE
ESEL,S,MAT,,1 $ ESEL,R,CENT,Z,(0.0+0.0007)/2 $ BFE,ALL,HGEN,1,154.0/4.375000000000001e-07 $ ALLSEL
TIME,1.588902881 $ KBC,1 $ AUTOTS,ON $ DELTIM,0.04375031700000001,0.004375031700000001,0.17500126800000004 $ SOLVE
ESEL,S,MAT,,1 $ ESEL,R,CENT,Z,(0.0+0.0007)/2 $ BFE,ALL,HGEN,1,700.0/4.375000000000001e-07 $ ALLSEL
TIME,1.876653071 $ KBC,1 $ AUTOTS,ON $ DELTIM,0.03596877374999999,0.003596877374999999,0.14387509499999995 $ SOLVE
ESEL,S,MAT,,1 $ ESEL,R,CENT,Z,(0.0+0.0007)/2 $ BFE,ALL,HGEN,1,154.0/4.375000000000001e-07 $ ALLSEL
TIME,2.226655608 $ KBC,1 $ AUTOTS,ON $ DELTIM,0.04375031712500002,0.004375031712500002,0.17500126850000008 $ SOLVE
ESEL,S,MAT,,1 $ ESEL,R,CENT,Z,(0.0+0.0007)/2 $ BFE,ALL,HGEN,1,251.99999999999997/4.375000000000001e-07 $ ALLSEL
TIME,2.228770915 $ KBC,1 $ AUTOTS,ON $ DELTIM,0.0002644133749999944,2.644133749999944e-05,0.0010576534999999776 $ SOLVE
ESEL,S,MAT,,1 $ ESEL,R,CENT,Z,(0.0+0.0007)/2 $ BFE,ALL,HGEN,1,588.0/4.375000000000001e-07 $ ALLSEL
TIME,2.352625015 $ KBC,1 $ AUTOTS,ON $ DELTIM,0.015481762499999996,0.0015481762499999995,0.061927049999999983 $ SOLVE
ESEL,S,MAT,,1 $ ESEL,R,CENT,Z,(0.0+0.0007)/2 $ BFE,ALL,HGEN,1,196.0/4.375000000000001e-07 $ ALLSEL
TIME,2.353285802 $ KBC,1 $ AUTOTS,ON $ DELTIM,8.259837499996481e-05,8.25983749999648e-06,0.00033039349999985923 $ SOLVE
ESEL,S,MAT,,1 $ ESEL,R,CENT,Z,(0.0+0.0007)/2 $ BFE,ALL,HGEN,1,154.0/4.375000000000001e-07 $ ALLSEL
TIME,2.703288338 $ KBC,1 $ AUTOTS,ON $ DELTIM,0.04375031700000004,0.004375031700000004,0.17500126800000015 $ SOLVE
ESEL,S,MAT,,1 $ ESEL,R,CENT,Z,(0.0+0.0007)/2 $ BFE,ALL,HGEN,1,700.0/4.375000000000001e-07 $ ALLSEL
TIME,2.991038528 $ KBC,1 $ AUTOTS,ON $ DELTIM,0.03596877374999996,0.003596877374999996,0.14387509499999984 $ SOLVE
ESEL,S,MAT,,1 $ ESEL,R,CENT,Z,(0.0+0.0007)/2 $ BFE,ALL,HGEN,1,154.0/4.375000000000001e-07 $ ALLSEL
TIME,3.341041065 $ KBC,1 $ AUTOTS,ON $ DELTIM,0.04375031712500005,0.004375031712500005,0.1750012685000002 $ SOLVE
ESEL,S,MAT,,1 $ ESEL,R,CENT,Z,(0.0+0.0007)/2 $ BFE,ALL,HGEN,1,251.99999999999997/4.375000000000001e-07 $ ALLSEL
TIME,3.343156372 $ KBC,1 $ AUTOTS,ON $ DELTIM,0.0002644133749999944,2.644133749999944e-05,0.0010576534999999776 $ SOLVE
ESEL,S,MAT,,1 $ ESEL,R,CENT,Z,(0.0+0.0007)/2 $ BFE,ALL,HGEN,1,588.0/4.375000000000001e-07 $ ALLSEL
TIME,3.467010472 $ KBC,1 $ AUTOTS,ON $ DELTIM,0.015481762499999996,0.0015481762499999995,0.061927049999999983 $ SOLVE
ESEL,S,MAT,,1 $ ESEL,R,CENT,Z,(0.0+0.0007)/2 $ BFE,ALL,HGEN,1,196.0/4.375000000000001e-07 $ ALLSEL
TIME,3.467671259 $ KBC,1 $ AUTOTS,ON $ DELTIM,8.259837499996481e-05,8.25983749999648e-06,0.00033039349999985923 $ SOLVE
ESEL,S,MAT,,1 $ ESEL,R,CENT,Z,(0.0+0.0007)/2 $ BFE,ALL,HGEN,1,154.0/4.375000000000001e-07 $ ALLSEL
TIME,3.817673796 $ KBC,1 $ AUTOTS,ON $ DELTIM,0.04375031712499999,0.0043750317125,0.17500126849999997 $ SOLVE
ESEL,S,MAT,,1 $ ESEL,R,CENT,Z,(0.0+0.0007)/2 $ BFE,ALL,HGEN,1,700.0/4.375000000000001e-07 $ ALLSEL
TIME,4.105423986 $ KBC,1 $ AUTOTS,ON $ DELTIM,0.035968773750000016,0.0035968773750000016,0.14387509500000006 $ SOLVE
ESEL,S,MAT,,1 $ ESEL,R,CENT,Z,(0.0+0.0007)/2 $ BFE,ALL,HGEN,1,154.0/4.375000000000001e-07 $ ALLSEL
TIME,4.455426522 $ KBC,1 $ AUTOTS,ON $ DELTIM,0.04375031699999998,0.004375031699999999,0.17500126799999993 $ SOLVE
ESEL,S,MAT,,1 $ ESEL,R,CENT,Z,(0.0+0.0007)/2 $ BFE,ALL,HGEN,1,251.99999999999997/4.375000000000001e-07 $ ALLSEL
TIME,4.457541829 $ KBC,1 $ AUTOTS,ON $ DELTIM,0.0002644133750000499,2.644133750000499e-05,0.0010576535000001996 $ SOLVE
ESEL,S,MAT,,1 $ ESEL,R,CENT,Z,(0.0+0.0007)/2 $ BFE,ALL,HGEN,1,588.0/4.375000000000001e-07 $ ALLSEL
TIME,4.581395929 $ KBC,1 $ AUTOTS,ON $ DELTIM,0.015481762499999996,0.0015481762499999995,0.061927049999999983 $ SOLVE
ESEL,S,MAT,,1 $ ESEL,R,CENT,Z,(0.0+0.0007)/2 $ BFE,ALL,HGEN,1,196.0/4.375000000000001e-07 $ ALLSEL
TIME,4.582056717 $ KBC,1 $ AUTOTS,ON $ DELTIM,8.259850000003066e-05,8.259850000003066e-06,0.00033039400000012265 $ SOLVE
ESEL,S,MAT,,1 $ ESEL,R,CENT,Z,(0.0+0.0007)/2 $ BFE,ALL,HGEN,1,154.0/4.375000000000001e-07 $ ALLSEL
TIME,4.932059253 $ KBC,1 $ AUTOTS,ON $ DELTIM,0.04375031699999998,0.004375031699999999,0.17500126799999993 $ SOLVE
ESEL,S,MAT,,1 $ ESEL,R,CENT,Z,(0.0+0.0007)/2 $ BFE,ALL,HGEN,1,700.0/4.375000000000001e-07 $ ALLSEL
TIME,5.219809443 $ KBC,1 $ AUTOTS,ON $ DELTIM,0.03596877374999996,0.003596877374999996,0.14387509499999984 $ SOLVE
ESEL,S,MAT,,1 $ ESEL,R,CENT,Z,(0.0+0.0007)/2 $ BFE,ALL,HGEN,1,154.0/4.375000000000001e-07 $ ALLSEL
TIME,5.56981198 $ KBC,1 $ AUTOTS,ON $ DELTIM,0.04375031712499999,0.0043750317125,0.17500126849999997 $ SOLVE
ESEL,S,MAT,,1 $ ESEL,R,CENT,Z,(0.0+0.0007)/2 $ BFE,ALL,HGEN,1,251.99999999999997/4.375000000000001e-07 $ ALLSEL
TIME,5.571927287 $ KBC,1 $ AUTOTS,ON $ DELTIM,0.0002644133750000499,2.644133750000499e-05,0.0010576535000001996 $ SOLVE
ESEL,S,MAT,,1 $ ESEL,R,CENT,Z,(0.0+0.0007)/2 $ BFE,ALL,HGEN,1,588.0/4.375000000000001e-07 $ ALLSEL
TIME,5.695781387 $ KBC,1 $ AUTOTS,ON $ DELTIM,0.015481762499999996,0.0015481762499999995,0.061927049999999983 $ SOLVE
ESEL,S,MAT,,1 $ ESEL,R,CENT,Z,(0.0+0.0007)/2 $ BFE,ALL,HGEN,1,196.0/4.375000000000001e-07 $ ALLSEL
TIME,5.696442174 $ KBC,1 $ AUTOTS,ON $ DELTIM,8.259837500002032e-05,8.259837500002032e-06,0.0003303935000000813 $ SOLVE
ESEL,S,MAT,,1 $ ESEL,R,CENT,Z,(0.0+0.0007)/2 $ BFE,ALL,HGEN,1,154.0/4.375000000000001e-07 $ ALLSEL
TIME,6.04644471 $ KBC,1 $ AUTOTS,ON $ DELTIM,0.04375031699999998,0.004375031699999999,0.17500126799999993 $ SOLVE
ESEL,S,MAT,,1 $ ESEL,R,CENT,Z,(0.0+0.0007)/2 $ BFE,ALL,HGEN,1,700.0/4.375000000000001e-07 $ ALLSEL
TIME,6.3341949 $ KBC,1 $ AUTOTS,ON $ DELTIM,0.03596877374999996,0.003596877374999996,0.14387509499999984 $ SOLVE
ESEL,S,MAT,,1 $ ESEL,R,CENT,Z,(0.0+0.0007)/2 $ BFE,ALL,HGEN,1,154.0/4.375000000000001e-07 $ ALLSEL
TIME,6.684197437 $ KBC,1 $ AUTOTS,ON $ DELTIM,0.04375031712499999,0.0043750317125,0.17500126849999997 $ SOLVE
ESEL,S,MAT,,1 $ ESEL,R,CENT,Z,(0.0+0.0007)/2 $ BFE,ALL,HGEN,1,251.99999999999997/4.375000000000001e-07 $ ALLSEL
TIME,6.686312744 $ KBC,1 $ AUTOTS,ON $ DELTIM,0.0002644133750000499,2.644133750000499e-05,0.0010576535000001996 $ SOLVE
ESEL,S,MAT,,1 $ ESEL,R,CENT,Z,(0.0+0.0007)/2 $ BFE,ALL,HGEN,1,588.0/4.375000000000001e-07 $ ALLSEL
TIME,6.810166844 $ KBC,1 $ AUTOTS,ON $ DELTIM,0.015481762499999996,0.0015481762499999995,0.061927049999999983 $ SOLVE
ESEL,S,MAT,,1 $ ESEL,R,CENT,Z,(0.0+0.0007)/2 $ BFE,ALL,HGEN,1,196.0/4.375000000000001e-07 $ ALLSEL
TIME,6.810827631 $ KBC,1 $ AUTOTS,ON $ DELTIM,8.259837500002032e-05,8.259837500002032e-06,0.0003303935000000813 $ SOLVE
ESEL,S,MAT,,1 $ ESEL,R,CENT,Z,(0.0+0.0007)/2 $ BFE,ALL,HGEN,1,154.0/4.375000000000001e-07 $ ALLSEL
TIME,7.160830168 $ KBC,1 $ AUTOTS,ON $ DELTIM,0.04375031712499999,0.0043750317125,0.17500126849999997 $ SOLVE
ESEL,S,MAT,,1 $ ESEL,R,CENT,Z,(0.0+0.0007)/2 $ BFE,ALL,HGEN,1,98.0/4.375000000000001e-07 $ ALLSEL
TIME,7.448580358 $ KBC,1 $ AUTOTS,ON $ DELTIM,0.03596877374999996,0.003596877374999996,0.14387509499999984 $ SOLVE
ESEL,S,MAT,,1 $ ESEL,R,CENT,Z,(0.0+0.0007)/2 $ BFE,ALL,HGEN,1,154.0/4.375000000000001e-07 $ ALLSEL
TIME,7.798582894 $ KBC,1 $ AUTOTS,ON $ DELTIM,0.04375031699999998,0.004375031699999999,0.17500126799999993 $ SOLVE
ESEL,S,MAT,,1 $ ESEL,R,CENT,Z,(0.0+0.0007)/2 $ BFE,ALL,HGEN,1,251.99999999999997/4.375000000000001e-07 $ ALLSEL
TIME,7.800698201 $ KBC,1 $ AUTOTS,ON $ DELTIM,0.0002644133750000499,2.644133750000499e-05,0.0010576535000001996 $ SOLVE
ESEL,S,MAT,,1 $ ESEL,R,CENT,Z,(0.0+0.0007)/2 $ BFE,ALL,HGEN,1,588.0/4.375000000000001e-07 $ ALLSEL
TIME,7.924552301 $ KBC,1 $ AUTOTS,ON $ DELTIM,0.015481762499999996,0.0015481762499999995,0.061927049999999983 $ SOLVE
ESEL,S,MAT,,1 $ ESEL,R,CENT,Z,(0.0+0.0007)/2 $ BFE,ALL,HGEN,1,196.0/4.375000000000001e-07 $ ALLSEL
TIME,7.925213089 $ KBC,1 $ AUTOTS,ON $ DELTIM,8.259849999991964e-05,8.259849999991964e-06,0.00033039399999967856 $ SOLVE
ESEL,S,MAT,,1 $ ESEL,R,CENT,Z,(0.0+0.0007)/2 $ BFE,ALL,HGEN,1,154.0/4.375000000000001e-07 $ ALLSEL
TIME,8.275215625 $ KBC,1 $ AUTOTS,ON $ DELTIM,0.04375031699999998,0.004375031699999999,0.17500126799999993 $ SOLVE
ESEL,S,MAT,,1 $ ESEL,R,CENT,Z,(0.0+0.0007)/2 $ BFE,ALL,HGEN,1,700.0/4.375000000000001e-07 $ ALLSEL
TIME,8.562965815 $ KBC,1 $ AUTOTS,ON $ DELTIM,0.03596877375000007,0.0035968773750000072,0.14387509500000029 $ SOLVE
ESEL,S,MAT,,1 $ ESEL,R,CENT,Z,(0.0+0.0007)/2 $ BFE,ALL,HGEN,1,154.0/4.375000000000001e-07 $ ALLSEL
TIME,8.912968352 $ KBC,1 $ AUTOTS,ON $ DELTIM,0.04375031712499999,0.0043750317125,0.17500126849999997 $ SOLVE
ESEL,S,MAT,,1 $ ESEL,R,CENT,Z,(0.0+0.0007)/2 $ BFE,ALL,HGEN,1,251.99999999999997/4.375000000000001e-07 $ ALLSEL
TIME,8.915083659 $ KBC,1 $ AUTOTS,ON $ DELTIM,0.0002644133750000499,2.644133750000499e-05,0.0010576535000001996 $ SOLVE
ESEL,S,MAT,,1 $ ESEL,R,CENT,Z,(0.0+0.0007)/2 $ BFE,ALL,HGEN,1,588.0/4.375000000000001e-07 $ ALLSEL
TIME,9.038937759 $ KBC,1 $ AUTOTS,ON $ DELTIM,0.015481762499999885,0.0015481762499999884,0.06192704999999954 $ SOLVE
ESEL,S,MAT,,1 $ ESEL,R,CENT,Z,(0.0+0.0007)/2 $ BFE,ALL,HGEN,1,196.0/4.375000000000001e-07 $ ALLSEL
TIME,9.039598546 $ KBC,1 $ AUTOTS,ON $ DELTIM,8.259837500013134e-05,8.259837500013133e-06,0.00033039350000052536 $ SOLVE
ESEL,S,MAT,,1 $ ESEL,R,CENT,Z,(0.0+0.0007)/2 $ BFE,ALL,HGEN,1,154.0/4.375000000000001e-07 $ ALLSEL
TIME,9.389601082 $ KBC,1 $ AUTOTS,ON $ DELTIM,0.04375031699999998,0.004375031699999999,0.17500126799999993 $ SOLVE
ESEL,S,MAT,,1 $ ESEL,R,CENT,Z,(0.0+0.0007)/2 $ BFE,ALL,HGEN,1,700.0/4.375000000000001e-07 $ ALLSEL
TIME,9.677351272 $ KBC,1 $ AUTOTS,ON $ DELTIM,0.03596877374999985,0.003596877374999985,0.1438750949999994 $ SOLVE
ESEL,S,MAT,,1 $ ESEL,R,CENT,Z,(0.0+0.0007)/2 $ BFE,ALL,HGEN,1,154.0/4.375000000000001e-07 $ ALLSEL
TIME,10.027353809 $ KBC,1 $ AUTOTS,ON $ DELTIM,0.04375031712499999,0.0043750317125,0.17500126849999997 $ SOLVE
ESEL,S,MAT,,1 $ ESEL,R,CENT,Z,(0.0+0.0007)/2 $ BFE,ALL,HGEN,1,251.99999999999997/4.375000000000001e-07 $ ALLSEL
TIME,10.029469116 $ KBC,1 $ AUTOTS,ON $ DELTIM,0.0002644133750000499,2.644133750000499e-05,0.0010576535000001996 $ SOLVE
ESEL,S,MAT,,1 $ ESEL,R,CENT,Z,(0.0+0.0007)/2 $ BFE,ALL,HGEN,1,588.0/4.375000000000001e-07 $ ALLSEL
TIME,10.153323216 $ KBC,1 $ AUTOTS,ON $ DELTIM,0.015481762500000107,0.0015481762500000108,0.06192705000000043 $ SOLVE
ESEL,S,MAT,,1 $ ESEL,R,CENT,Z,(0.0+0.0007)/2 $ BFE,ALL,HGEN,1,196.0/4.375000000000001e-07 $ ALLSEL
TIME,10.153984003 $ KBC,1 $ AUTOTS,ON $ DELTIM,8.25983749999093e-05,8.25983749999093e-06,0.0003303934999996372 $ SOLVE
ESEL,S,MAT,,1 $ ESEL,R,CENT,Z,(0.0+0.0007)/2 $ BFE,ALL,HGEN,1,154.0/4.375000000000001e-07 $ ALLSEL
TIME,10.50398654 $ KBC,1 $ AUTOTS,ON $ DELTIM,0.04375031712499999,0.0043750317125,0.17500126849999997 $ SOLVE
ESEL,S,MAT,,1 $ ESEL,R,CENT,Z,(0.0+0.0007)/2 $ BFE,ALL,HGEN,1,700.0/4.375000000000001e-07 $ ALLSEL
TIME,10.79173673 $ KBC,1 $ AUTOTS,ON $ DELTIM,0.03596877375000007,0.0035968773750000072,0.14387509500000029 $ SOLVE
ESEL,S,MAT,,1 $ ESEL,R,CENT,Z,(0.0+0.0007)/2 $ BFE,ALL,HGEN,1,154.0/4.375000000000001e-07 $ ALLSEL
TIME,11.141739266 $ KBC,1 $ AUTOTS,ON $ DELTIM,0.04375031699999998,0.004375031699999999,0.17500126799999993 $ SOLVE
ESEL,S,MAT,,1 $ ESEL,R,CENT,Z,(0.0+0.0007)/2 $ BFE,ALL,HGEN,1,251.99999999999997/4.375000000000001e-07 $ ALLSEL
TIME,11.143854573 $ KBC,1 $ AUTOTS,ON $ DELTIM,0.0002644133750000499,2.644133750000499e-05,0.0010576535000001996 $ SOLVE
FINISH

/POST26
NUMVAR,200
NSOL,2,NMON,TEMP
/OUTPUT,mixtral8x7b_pic_transient,csv
PRVAR,2
/OUTPUT
FINISH
