/PREP7
! ===== ICCAD2026 OIO3D GPU/EIC/aPIC transient (Coenen et al. TCPMT 2026 params) =====
MP,KXX,1,150.0 $ MP,KYY,1,150.0 $ MP,KZZ,1,150.0 $ MP,DENS,1,2330 $ MP,C,1,700
MP,KXX,2,5.0 $ MP,KYY,2,5.0 $ MP,KZZ,2,5.0 $ MP,DENS,2,2500 $ MP,C,2,800
MP,KXX,3,80.0 $ MP,KYY,3,80.0 $ MP,KZZ,3,80.0 $ MP,DENS,3,2300 $ MP,C,3,700
MP,KXX,4,2.55 $ MP,KYY,4,2.55 $ MP,KZZ,4,2.55 $ MP,DENS,4,2500 $ MP,C,4,800
ET,1,SOLID70
ESIZE,0.025/20
BLOCK,0,0.025,0,0.025,0.0,0.0007 $ VSEL,S,LOC,Z,(0.0+0.0007)/2 $ VATT,1,,1 $ VMESH,ALL $ ALLSEL
BLOCK,0,0.025,0,0.025,0.0007,0.0007023999999999999 $ VSEL,S,LOC,Z,(0.0007+0.0007023999999999999)/2 $ VATT,2,,1 $ VMESH,ALL $ ALLSEL
BLOCK,0,0.025,0,0.025,0.0007023999999999999,0.0008024 $ VSEL,S,LOC,Z,(0.0007023999999999999+0.0008024)/2 $ VATT,1,,1 $ VMESH,ALL $ ALLSEL
BLOCK,0,0.025,0,0.025,0.0008024,0.0008047999999999999 $ VSEL,S,LOC,Z,(0.0008024+0.0008047999999999999)/2 $ VATT,2,,1 $ VMESH,ALL $ ALLSEL
BLOCK,0,0.025,0,0.025,0.0008047999999999999,0.0008548 $ VSEL,S,LOC,Z,(0.0008047999999999999+0.0008548)/2 $ VATT,3,,1 $ VMESH,ALL $ ALLSEL
BLOCK,0,0.025,0,0.025,0.0008548,0.0008571999999999999 $ VSEL,S,LOC,Z,(0.0008548+0.0008571999999999999)/2 $ VATT,4,,1 $ VMESH,ALL $ ALLSEL
BLOCK,0,0.025,0,0.025,0.0008571999999999999,0.0011572 $ VSEL,S,LOC,Z,(0.0008571999999999999+0.0011572)/2 $ VATT,1,,1 $ VMESH,ALL $ ALLSEL
ALLSEL $ NUMMRG,NODE,1e-9 $ NUMCMP,NODE
VOL_XPU=4.375000000000001e-07
ESEL,S,MAT,,1 $ ESEL,R,CENT,Z,(0.0007023999999999999+0.0008024)/2 $ BFE,ALL,HGEN,1,266.25/6.250000000000001e-08 $ ALLSEL
ESEL,S,MAT,,3 $ BFE,ALL,HGEN,1,70.625/3.1250000000000005e-08 $ ALLSEL
ASEL,S,LOC,Z,0.0 $ SFA,ALL,,CONV,70000.0,45.0 $ ALLSEL
ASEL,S,LOC,Z,0.0011572 $ SFA,ALL,,CONV,16000.0000,45.0 $ ALLSEL
NMON=NODE(0.025/2,0.025/2,(0.0008047999999999999+0.0008548)/2)
FINISH

/SOLU
ANTYPE,TRANS
TRNOPT,FULL
OUTRES,ALL,ALL
TIMINT,OFF
ESEL,S,MAT,,1 $ ESEL,R,CENT,Z,(0.0+0.0007)/2 $ BFE,ALL,HGEN,1,84.0/4.375000000000001e-07 $ ALLSEL
TIME,1e-3 $ KBC,1 $ SOLVE
TIMINT,ON
ESEL,S,MAT,,1 $ ESEL,R,CENT,Z,(0.0+0.0007)/2 $ BFE,ALL,HGEN,1,84.0/4.375000000000001e-07 $ ALLSEL
TIME,0.040665517 $ KBC,1 $ AUTOTS,OFF $ DELTIM,0.001 $ SOLVE
ESEL,S,MAT,,1 $ ESEL,R,CENT,Z,(0.0+0.0007)/2 $ BFE,ALL,HGEN,1,700.0/4.375000000000001e-07 $ ALLSEL
TIME,0.052973483 $ KBC,1 $ AUTOTS,OFF $ DELTIM,0.001 $ SOLVE
ESEL,S,MAT,,1 $ ESEL,R,CENT,Z,(0.0+0.0007)/2 $ BFE,ALL,HGEN,1,140.0/4.375000000000001e-07 $ ALLSEL
TIME,0.053049874 $ KBC,1 $ AUTOTS,OFF $ DELTIM,1.25e-05 $ SOLVE
ESEL,S,MAT,,1 $ ESEL,R,CENT,Z,(0.0+0.0007)/2 $ BFE,ALL,HGEN,1,280.0/4.375000000000001e-07 $ ALLSEL
TIME,0.053113637 $ KBC,1 $ AUTOTS,OFF $ DELTIM,1.25e-05 $ SOLVE
ESEL,S,MAT,,1 $ ESEL,R,CENT,Z,(0.0+0.0007)/2 $ BFE,ALL,HGEN,1,84.0/4.375000000000001e-07 $ ALLSEL
TIME,0.063166503 $ KBC,1 $ AUTOTS,OFF $ DELTIM,0.001 $ SOLVE
ESEL,S,MAT,,1 $ ESEL,R,CENT,Z,(0.0+0.0007)/2 $ BFE,ALL,HGEN,1,280.0/4.375000000000001e-07 $ ALLSEL
TIME,0.065250996 $ KBC,1 $ AUTOTS,OFF $ DELTIM,0.00026056162500000084 $ SOLVE
ESEL,S,MAT,,1 $ ESEL,R,CENT,Z,(0.0+0.0007)/2 $ BFE,ALL,HGEN,1,700.0/4.375000000000001e-07 $ ALLSEL
TIME,0.072006564 $ KBC,1 $ AUTOTS,OFF $ DELTIM,0.0008444459999999987 $ SOLVE
ESEL,S,MAT,,1 $ ESEL,R,CENT,Z,(0.0+0.0007)/2 $ BFE,ALL,HGEN,1,84.0/4.375000000000001e-07 $ ALLSEL
TIME,0.081264663 $ KBC,1 $ AUTOTS,OFF $ DELTIM,0.001 $ SOLVE
ESEL,S,MAT,,1 $ ESEL,R,CENT,Z,(0.0+0.0007)/2 $ BFE,ALL,HGEN,1,140.0/4.375000000000001e-07 $ ALLSEL
TIME,0.081341056 $ KBC,1 $ AUTOTS,OFF $ DELTIM,1.25e-05 $ SOLVE
ESEL,S,MAT,,1 $ ESEL,R,CENT,Z,(0.0+0.0007)/2 $ BFE,ALL,HGEN,1,700.0/4.375000000000001e-07 $ ALLSEL
TIME,0.093649022 $ KBC,1 $ AUTOTS,OFF $ DELTIM,0.001 $ SOLVE
ESEL,S,MAT,,1 $ ESEL,R,CENT,Z,(0.0+0.0007)/2 $ BFE,ALL,HGEN,1,140.0/4.375000000000001e-07 $ ALLSEL
TIME,0.093725412 $ KBC,1 $ AUTOTS,OFF $ DELTIM,1.25e-05 $ SOLVE
ESEL,S,MAT,,1 $ ESEL,R,CENT,Z,(0.0+0.0007)/2 $ BFE,ALL,HGEN,1,280.0/4.375000000000001e-07 $ ALLSEL
TIME,0.093789176 $ KBC,1 $ AUTOTS,OFF $ DELTIM,1.25e-05 $ SOLVE
ESEL,S,MAT,,1 $ ESEL,R,CENT,Z,(0.0+0.0007)/2 $ BFE,ALL,HGEN,1,84.0/4.375000000000001e-07 $ ALLSEL
TIME,0.103842042 $ KBC,1 $ AUTOTS,OFF $ DELTIM,0.001 $ SOLVE
ESEL,S,MAT,,1 $ ESEL,R,CENT,Z,(0.0+0.0007)/2 $ BFE,ALL,HGEN,1,280.0/4.375000000000001e-07 $ ALLSEL
TIME,0.105926535 $ KBC,1 $ AUTOTS,OFF $ DELTIM,0.00026056162500000084 $ SOLVE
ESEL,S,MAT,,1 $ ESEL,R,CENT,Z,(0.0+0.0007)/2 $ BFE,ALL,HGEN,1,700.0/4.375000000000001e-07 $ ALLSEL
TIME,0.112682103 $ KBC,1 $ AUTOTS,OFF $ DELTIM,0.0008444460000000004 $ SOLVE
ESEL,S,MAT,,1 $ ESEL,R,CENT,Z,(0.0+0.0007)/2 $ BFE,ALL,HGEN,1,84.0/4.375000000000001e-07 $ ALLSEL
TIME,0.121940201 $ KBC,1 $ AUTOTS,OFF $ DELTIM,0.001 $ SOLVE
ESEL,S,MAT,,1 $ ESEL,R,CENT,Z,(0.0+0.0007)/2 $ BFE,ALL,HGEN,1,140.0/4.375000000000001e-07 $ ALLSEL
TIME,0.122016595 $ KBC,1 $ AUTOTS,OFF $ DELTIM,1.25e-05 $ SOLVE
ESEL,S,MAT,,1 $ ESEL,R,CENT,Z,(0.0+0.0007)/2 $ BFE,ALL,HGEN,1,700.0/4.375000000000001e-07 $ ALLSEL
TIME,0.134324561 $ KBC,1 $ AUTOTS,OFF $ DELTIM,0.001 $ SOLVE
ESEL,S,MAT,,1 $ ESEL,R,CENT,Z,(0.0+0.0007)/2 $ BFE,ALL,HGEN,1,140.0/4.375000000000001e-07 $ ALLSEL
TIME,0.134400951 $ KBC,1 $ AUTOTS,OFF $ DELTIM,1.25e-05 $ SOLVE
ESEL,S,MAT,,1 $ ESEL,R,CENT,Z,(0.0+0.0007)/2 $ BFE,ALL,HGEN,1,280.0/4.375000000000001e-07 $ ALLSEL
TIME,0.134464715 $ KBC,1 $ AUTOTS,OFF $ DELTIM,1.25e-05 $ SOLVE
ESEL,S,MAT,,1 $ ESEL,R,CENT,Z,(0.0+0.0007)/2 $ BFE,ALL,HGEN,1,84.0/4.375000000000001e-07 $ ALLSEL
TIME,0.144517581 $ KBC,1 $ AUTOTS,OFF $ DELTIM,0.001 $ SOLVE
ESEL,S,MAT,,1 $ ESEL,R,CENT,Z,(0.0+0.0007)/2 $ BFE,ALL,HGEN,1,280.0/4.375000000000001e-07 $ ALLSEL
TIME,0.146602074 $ KBC,1 $ AUTOTS,OFF $ DELTIM,0.0002605616249999991 $ SOLVE
ESEL,S,MAT,,1 $ ESEL,R,CENT,Z,(0.0+0.0007)/2 $ BFE,ALL,HGEN,1,700.0/4.375000000000001e-07 $ ALLSEL
TIME,0.153357642 $ KBC,1 $ AUTOTS,OFF $ DELTIM,0.0008444459999999987 $ SOLVE
ESEL,S,MAT,,1 $ ESEL,R,CENT,Z,(0.0+0.0007)/2 $ BFE,ALL,HGEN,1,84.0/4.375000000000001e-07 $ ALLSEL
TIME,0.16261574 $ KBC,1 $ AUTOTS,OFF $ DELTIM,0.001 $ SOLVE
ESEL,S,MAT,,1 $ ESEL,R,CENT,Z,(0.0+0.0007)/2 $ BFE,ALL,HGEN,1,140.0/4.375000000000001e-07 $ ALLSEL
TIME,0.162692133 $ KBC,1 $ AUTOTS,OFF $ DELTIM,1.25e-05 $ SOLVE
ESEL,S,MAT,,1 $ ESEL,R,CENT,Z,(0.0+0.0007)/2 $ BFE,ALL,HGEN,1,700.0/4.375000000000001e-07 $ ALLSEL
TIME,0.175000099 $ KBC,1 $ AUTOTS,OFF $ DELTIM,0.001 $ SOLVE
ESEL,S,MAT,,1 $ ESEL,R,CENT,Z,(0.0+0.0007)/2 $ BFE,ALL,HGEN,1,140.0/4.375000000000001e-07 $ ALLSEL
TIME,0.17507649 $ KBC,1 $ AUTOTS,OFF $ DELTIM,1.25e-05 $ SOLVE
ESEL,S,MAT,,1 $ ESEL,R,CENT,Z,(0.0+0.0007)/2 $ BFE,ALL,HGEN,1,280.0/4.375000000000001e-07 $ ALLSEL
TIME,0.175129898 $ KBC,1 $ AUTOTS,OFF $ DELTIM,1.25e-05 $ SOLVE
ESEL,S,MAT,,1 $ ESEL,R,CENT,Z,(0.0+0.0007)/2 $ BFE,ALL,HGEN,1,280.0/4.375000000000001e-07 $ ALLSEL
TIME,0.175140253 $ KBC,1 $ AUTOTS,OFF $ DELTIM,1.25e-05 $ SOLVE
ESEL,S,MAT,,1 $ ESEL,R,CENT,Z,(0.0+0.0007)/2 $ BFE,ALL,HGEN,1,84.0/4.375000000000001e-07 $ ALLSEL
TIME,0.185182764 $ KBC,1 $ AUTOTS,OFF $ DELTIM,0.001 $ SOLVE
ESEL,S,MAT,,1 $ ESEL,R,CENT,Z,(0.0+0.0007)/2 $ BFE,ALL,HGEN,1,280.0/4.375000000000001e-07 $ ALLSEL
TIME,0.187267257 $ KBC,1 $ AUTOTS,OFF $ DELTIM,0.0002605616249999991 $ SOLVE
ESEL,S,MAT,,1 $ ESEL,R,CENT,Z,(0.0+0.0007)/2 $ BFE,ALL,HGEN,1,700.0/4.375000000000001e-07 $ ALLSEL
TIME,0.194022825 $ KBC,1 $ AUTOTS,OFF $ DELTIM,0.0008444460000000022 $ SOLVE
ESEL,S,MAT,,1 $ ESEL,R,CENT,Z,(0.0+0.0007)/2 $ BFE,ALL,HGEN,1,84.0/4.375000000000001e-07 $ ALLSEL
TIME,0.20328084 $ KBC,1 $ AUTOTS,OFF $ DELTIM,0.001 $ SOLVE
ESEL,S,MAT,,1 $ ESEL,R,CENT,Z,(0.0+0.0007)/2 $ BFE,ALL,HGEN,1,140.0/4.375000000000001e-07 $ ALLSEL
TIME,0.203357234 $ KBC,1 $ AUTOTS,OFF $ DELTIM,1.25e-05 $ SOLVE
ESEL,S,MAT,,1 $ ESEL,R,CENT,Z,(0.0+0.0007)/2 $ BFE,ALL,HGEN,1,84.0/4.375000000000001e-07 $ ALLSEL
TIME,0.303930638 $ KBC,1 $ AUTOTS,OFF $ DELTIM,0.001 $ SOLVE
ESEL,S,MAT,,1 $ ESEL,R,CENT,Z,(0.0+0.0007)/2 $ BFE,ALL,HGEN,1,140.0/4.375000000000001e-07 $ ALLSEL
TIME,0.304082115 $ KBC,1 $ AUTOTS,OFF $ DELTIM,1.893462500000137e-05 $ SOLVE
ESEL,S,MAT,,1 $ ESEL,R,CENT,Z,(0.0+0.0007)/2 $ BFE,ALL,HGEN,1,280.0/4.375000000000001e-07 $ ALLSEL
TIME,0.304085536 $ KBC,1 $ AUTOTS,OFF $ DELTIM,1.25e-05 $ SOLVE
ESEL,S,MAT,,1 $ ESEL,R,CENT,Z,(0.0+0.0007)/2 $ BFE,ALL,HGEN,1,84.0/4.375000000000001e-07 $ ALLSEL
TIME,0.314134981 $ KBC,1 $ AUTOTS,OFF $ DELTIM,0.001 $ SOLVE
ESEL,S,MAT,,1 $ ESEL,R,CENT,Z,(0.0+0.0007)/2 $ BFE,ALL,HGEN,1,280.0/4.375000000000001e-07 $ ALLSEL
TIME,0.314226476 $ KBC,1 $ AUTOTS,OFF $ DELTIM,1.25e-05 $ SOLVE
ESEL,S,MAT,,1 $ ESEL,R,CENT,Z,(0.0+0.0007)/2 $ BFE,ALL,HGEN,1,700.0/4.375000000000001e-07 $ ALLSEL
TIME,0.318818354 $ KBC,1 $ AUTOTS,OFF $ DELTIM,0.0005739847500000061 $ SOLVE
ESEL,S,MAT,,1 $ ESEL,R,CENT,Z,(0.0+0.0007)/2 $ BFE,ALL,HGEN,1,84.0/4.375000000000001e-07 $ ALLSEL
TIME,0.327770081 $ KBC,1 $ AUTOTS,OFF $ DELTIM,0.001 $ SOLVE
ESEL,S,MAT,,1 $ ESEL,R,CENT,Z,(0.0+0.0007)/2 $ BFE,ALL,HGEN,1,280.0/4.375000000000001e-07 $ ALLSEL
TIME,0.327892152 $ KBC,1 $ AUTOTS,OFF $ DELTIM,1.525887500000017e-05 $ SOLVE
ESEL,S,MAT,,1 $ ESEL,R,CENT,Z,(0.0+0.0007)/2 $ BFE,ALL,HGEN,1,140.0/4.375000000000001e-07 $ ALLSEL
TIME,0.328043619 $ KBC,1 $ AUTOTS,OFF $ DELTIM,1.893337500000203e-05 $ SOLVE
ESEL,S,MAT,,1 $ ESEL,R,CENT,Z,(0.0+0.0007)/2 $ BFE,ALL,HGEN,1,700.0/4.375000000000001e-07 $ ALLSEL
TIME,0.352659551 $ KBC,1 $ AUTOTS,OFF $ DELTIM,0.001 $ SOLVE
ESEL,S,MAT,,1 $ ESEL,R,CENT,Z,(0.0+0.0007)/2 $ BFE,ALL,HGEN,1,84.0/4.375000000000001e-07 $ ALLSEL
TIME,0.356373706 $ KBC,1 $ AUTOTS,OFF $ DELTIM,0.0004642693749999996 $ SOLVE
ESEL,S,MAT,,1 $ ESEL,R,CENT,Z,(0.0+0.0007)/2 $ BFE,ALL,HGEN,1,140.0/4.375000000000001e-07 $ ALLSEL
TIME,0.356525183 $ KBC,1 $ AUTOTS,OFF $ DELTIM,1.893462500000137e-05 $ SOLVE
ESEL,S,MAT,,1 $ ESEL,R,CENT,Z,(0.0+0.0007)/2 $ BFE,ALL,HGEN,1,280.0/4.375000000000001e-07 $ ALLSEL
TIME,0.356528604 $ KBC,1 $ AUTOTS,OFF $ DELTIM,1.25e-05 $ SOLVE
ESEL,S,MAT,,1 $ ESEL,R,CENT,Z,(0.0+0.0007)/2 $ BFE,ALL,HGEN,1,84.0/4.375000000000001e-07 $ ALLSEL
TIME,0.366578049 $ KBC,1 $ AUTOTS,OFF $ DELTIM,0.001 $ SOLVE
ESEL,S,MAT,,1 $ ESEL,R,CENT,Z,(0.0+0.0007)/2 $ BFE,ALL,HGEN,1,280.0/4.375000000000001e-07 $ ALLSEL
TIME,0.366669543 $ KBC,1 $ AUTOTS,OFF $ DELTIM,1.25e-05 $ SOLVE
ESEL,S,MAT,,1 $ ESEL,R,CENT,Z,(0.0+0.0007)/2 $ BFE,ALL,HGEN,1,700.0/4.375000000000001e-07 $ ALLSEL
TIME,0.371261422 $ KBC,1 $ AUTOTS,OFF $ DELTIM,0.0005739848750000026 $ SOLVE
ESEL,S,MAT,,1 $ ESEL,R,CENT,Z,(0.0+0.0007)/2 $ BFE,ALL,HGEN,1,84.0/4.375000000000001e-07 $ ALLSEL
TIME,0.38010641 $ KBC,1 $ AUTOTS,OFF $ DELTIM,0.001 $ SOLVE
ESEL,S,MAT,,1 $ ESEL,R,CENT,Z,(0.0+0.0007)/2 $ BFE,ALL,HGEN,1,280.0/4.375000000000001e-07 $ ALLSEL
TIME,0.380228481 $ KBC,1 $ AUTOTS,OFF $ DELTIM,1.525887500000017e-05 $ SOLVE
ESEL,S,MAT,,1 $ ESEL,R,CENT,Z,(0.0+0.0007)/2 $ BFE,ALL,HGEN,1,140.0/4.375000000000001e-07 $ ALLSEL
TIME,0.380379948 $ KBC,1 $ AUTOTS,OFF $ DELTIM,1.893337500000203e-05 $ SOLVE
ESEL,S,MAT,,1 $ ESEL,R,CENT,Z,(0.0+0.0007)/2 $ BFE,ALL,HGEN,1,700.0/4.375000000000001e-07 $ ALLSEL
TIME,0.40499588 $ KBC,1 $ AUTOTS,OFF $ DELTIM,0.001 $ SOLVE
ESEL,S,MAT,,1 $ ESEL,R,CENT,Z,(0.0+0.0007)/2 $ BFE,ALL,HGEN,1,84.0/4.375000000000001e-07 $ ALLSEL
TIME,0.449991841 $ KBC,1 $ AUTOTS,OFF $ DELTIM,0.001 $ SOLVE
ESEL,S,MAT,,1 $ ESEL,R,CENT,Z,(0.0+0.0007)/2 $ BFE,ALL,HGEN,1,140.0/4.375000000000001e-07 $ ALLSEL
TIME,0.450143319 $ KBC,1 $ AUTOTS,OFF $ DELTIM,1.8934749999997835e-05 $ SOLVE
ESEL,S,MAT,,1 $ ESEL,R,CENT,Z,(0.0+0.0007)/2 $ BFE,ALL,HGEN,1,280.0/4.375000000000001e-07 $ ALLSEL
TIME,0.450146739 $ KBC,1 $ AUTOTS,OFF $ DELTIM,1.25e-05 $ SOLVE
ESEL,S,MAT,,1 $ ESEL,R,CENT,Z,(0.0+0.0007)/2 $ BFE,ALL,HGEN,1,84.0/4.375000000000001e-07 $ ALLSEL
TIME,0.460196185 $ KBC,1 $ AUTOTS,OFF $ DELTIM,0.001 $ SOLVE
ESEL,S,MAT,,1 $ ESEL,R,CENT,Z,(0.0+0.0007)/2 $ BFE,ALL,HGEN,1,280.0/4.375000000000001e-07 $ ALLSEL
TIME,0.460287679 $ KBC,1 $ AUTOTS,OFF $ DELTIM,1.25e-05 $ SOLVE
ESEL,S,MAT,,1 $ ESEL,R,CENT,Z,(0.0+0.0007)/2 $ BFE,ALL,HGEN,1,700.0/4.375000000000001e-07 $ ALLSEL
TIME,0.464879558 $ KBC,1 $ AUTOTS,OFF $ DELTIM,0.0005739848750000026 $ SOLVE
ESEL,S,MAT,,1 $ ESEL,R,CENT,Z,(0.0+0.0007)/2 $ BFE,ALL,HGEN,1,84.0/4.375000000000001e-07 $ ALLSEL
TIME,0.473774219 $ KBC,1 $ AUTOTS,OFF $ DELTIM,0.001 $ SOLVE
ESEL,S,MAT,,1 $ ESEL,R,CENT,Z,(0.0+0.0007)/2 $ BFE,ALL,HGEN,1,280.0/4.375000000000001e-07 $ ALLSEL
TIME,0.473896289 $ KBC,1 $ AUTOTS,OFF $ DELTIM,1.5258750000003707e-05 $ SOLVE
ESEL,S,MAT,,1 $ ESEL,R,CENT,Z,(0.0+0.0007)/2 $ BFE,ALL,HGEN,1,140.0/4.375000000000001e-07 $ ALLSEL
TIME,0.474047757 $ KBC,1 $ AUTOTS,OFF $ DELTIM,1.8933499999998493e-05 $ SOLVE
ESEL,S,MAT,,1 $ ESEL,R,CENT,Z,(0.0+0.0007)/2 $ BFE,ALL,HGEN,1,700.0/4.375000000000001e-07 $ ALLSEL
TIME,0.498663688 $ KBC,1 $ AUTOTS,OFF $ DELTIM,0.001 $ SOLVE
ESEL,S,MAT,,1 $ ESEL,R,CENT,Z,(0.0+0.0007)/2 $ BFE,ALL,HGEN,1,84.0/4.375000000000001e-07 $ ALLSEL
TIME,0.506339749 $ KBC,1 $ AUTOTS,OFF $ DELTIM,0.0009595076250000015 $ SOLVE
ESEL,S,MAT,,1 $ ESEL,R,CENT,Z,(0.0+0.0007)/2 $ BFE,ALL,HGEN,1,140.0/4.375000000000001e-07 $ ALLSEL
TIME,0.506491226 $ KBC,1 $ AUTOTS,OFF $ DELTIM,1.893462499999443e-05 $ SOLVE
ESEL,S,MAT,,1 $ ESEL,R,CENT,Z,(0.0+0.0007)/2 $ BFE,ALL,HGEN,1,280.0/4.375000000000001e-07 $ ALLSEL
TIME,0.506494647 $ KBC,1 $ AUTOTS,OFF $ DELTIM,1.25e-05 $ SOLVE
ESEL,S,MAT,,1 $ ESEL,R,CENT,Z,(0.0+0.0007)/2 $ BFE,ALL,HGEN,1,84.0/4.375000000000001e-07 $ ALLSEL
TIME,0.516544093 $ KBC,1 $ AUTOTS,OFF $ DELTIM,0.001 $ SOLVE
ESEL,S,MAT,,1 $ ESEL,R,CENT,Z,(0.0+0.0007)/2 $ BFE,ALL,HGEN,1,280.0/4.375000000000001e-07 $ ALLSEL
TIME,0.516635587 $ KBC,1 $ AUTOTS,OFF $ DELTIM,1.25e-05 $ SOLVE
ESEL,S,MAT,,1 $ ESEL,R,CENT,Z,(0.0+0.0007)/2 $ BFE,ALL,HGEN,1,700.0/4.375000000000001e-07 $ ALLSEL
TIME,0.521227466 $ KBC,1 $ AUTOTS,OFF $ DELTIM,0.0005739848750000026 $ SOLVE
ESEL,S,MAT,,1 $ ESEL,R,CENT,Z,(0.0+0.0007)/2 $ BFE,ALL,HGEN,1,84.0/4.375000000000001e-07 $ ALLSEL
TIME,0.530171716 $ KBC,1 $ AUTOTS,OFF $ DELTIM,0.001 $ SOLVE
ESEL,S,MAT,,1 $ ESEL,R,CENT,Z,(0.0+0.0007)/2 $ BFE,ALL,HGEN,1,280.0/4.375000000000001e-07 $ ALLSEL
TIME,0.530293786 $ KBC,1 $ AUTOTS,OFF $ DELTIM,1.5258749999996768e-05 $ SOLVE
ESEL,S,MAT,,1 $ ESEL,R,CENT,Z,(0.0+0.0007)/2 $ BFE,ALL,HGEN,1,140.0/4.375000000000001e-07 $ ALLSEL
TIME,0.530445254 $ KBC,1 $ AUTOTS,OFF $ DELTIM,1.8933499999998493e-05 $ SOLVE
ESEL,S,MAT,,1 $ ESEL,R,CENT,Z,(0.0+0.0007)/2 $ BFE,ALL,HGEN,1,700.0/4.375000000000001e-07 $ ALLSEL
TIME,0.555061185 $ KBC,1 $ AUTOTS,OFF $ DELTIM,0.001 $ SOLVE
ESEL,S,MAT,,1 $ ESEL,R,CENT,Z,(0.0+0.0007)/2 $ BFE,ALL,HGEN,1,84.0/4.375000000000001e-07 $ ALLSEL
TIME,0.603491696 $ KBC,1 $ AUTOTS,OFF $ DELTIM,0.001 $ SOLVE
ESEL,S,MAT,,1 $ ESEL,R,CENT,Z,(0.0+0.0007)/2 $ BFE,ALL,HGEN,1,84.0/4.375000000000001e-07 $ ALLSEL
TIME,0.644157213 $ KBC,1 $ AUTOTS,OFF $ DELTIM,0.001 $ SOLVE
ESEL,S,MAT,,1 $ ESEL,R,CENT,Z,(0.0+0.0007)/2 $ BFE,ALL,HGEN,1,700.0/4.375000000000001e-07 $ ALLSEL
TIME,0.656465179 $ KBC,1 $ AUTOTS,OFF $ DELTIM,0.001 $ SOLVE
ESEL,S,MAT,,1 $ ESEL,R,CENT,Z,(0.0+0.0007)/2 $ BFE,ALL,HGEN,1,140.0/4.375000000000001e-07 $ ALLSEL
TIME,0.65654157 $ KBC,1 $ AUTOTS,OFF $ DELTIM,1.25e-05 $ SOLVE
ESEL,S,MAT,,1 $ ESEL,R,CENT,Z,(0.0+0.0007)/2 $ BFE,ALL,HGEN,1,280.0/4.375000000000001e-07 $ ALLSEL
TIME,0.656605333 $ KBC,1 $ AUTOTS,OFF $ DELTIM,1.25e-05 $ SOLVE
ESEL,S,MAT,,1 $ ESEL,R,CENT,Z,(0.0+0.0007)/2 $ BFE,ALL,HGEN,1,84.0/4.375000000000001e-07 $ ALLSEL
TIME,0.6666582 $ KBC,1 $ AUTOTS,OFF $ DELTIM,0.001 $ SOLVE
ESEL,S,MAT,,1 $ ESEL,R,CENT,Z,(0.0+0.0007)/2 $ BFE,ALL,HGEN,1,280.0/4.375000000000001e-07 $ ALLSEL
TIME,0.668742692 $ KBC,1 $ AUTOTS,OFF $ DELTIM,0.0002605615000000061 $ SOLVE
ESEL,S,MAT,,1 $ ESEL,R,CENT,Z,(0.0+0.0007)/2 $ BFE,ALL,HGEN,1,700.0/4.375000000000001e-07 $ ALLSEL
TIME,0.67549826 $ KBC,1 $ AUTOTS,OFF $ DELTIM,0.0008444459999999987 $ SOLVE
ESEL,S,MAT,,1 $ ESEL,R,CENT,Z,(0.0+0.0007)/2 $ BFE,ALL,HGEN,1,84.0/4.375000000000001e-07 $ ALLSEL
TIME,0.684756359 $ KBC,1 $ AUTOTS,OFF $ DELTIM,0.001 $ SOLVE
ESEL,S,MAT,,1 $ ESEL,R,CENT,Z,(0.0+0.0007)/2 $ BFE,ALL,HGEN,1,140.0/4.375000000000001e-07 $ ALLSEL
TIME,0.684832752 $ KBC,1 $ AUTOTS,OFF $ DELTIM,1.25e-05 $ SOLVE
ESEL,S,MAT,,1 $ ESEL,R,CENT,Z,(0.0+0.0007)/2 $ BFE,ALL,HGEN,1,700.0/4.375000000000001e-07 $ ALLSEL
TIME,0.697140718 $ KBC,1 $ AUTOTS,OFF $ DELTIM,0.001 $ SOLVE
ESEL,S,MAT,,1 $ ESEL,R,CENT,Z,(0.0+0.0007)/2 $ BFE,ALL,HGEN,1,140.0/4.375000000000001e-07 $ ALLSEL
TIME,0.697217109 $ KBC,1 $ AUTOTS,OFF $ DELTIM,1.25e-05 $ SOLVE
ESEL,S,MAT,,1 $ ESEL,R,CENT,Z,(0.0+0.0007)/2 $ BFE,ALL,HGEN,1,280.0/4.375000000000001e-07 $ ALLSEL
TIME,0.697280872 $ KBC,1 $ AUTOTS,OFF $ DELTIM,1.25e-05 $ SOLVE
ESEL,S,MAT,,1 $ ESEL,R,CENT,Z,(0.0+0.0007)/2 $ BFE,ALL,HGEN,1,84.0/4.375000000000001e-07 $ ALLSEL
TIME,0.707333738 $ KBC,1 $ AUTOTS,OFF $ DELTIM,0.001 $ SOLVE
ESEL,S,MAT,,1 $ ESEL,R,CENT,Z,(0.0+0.0007)/2 $ BFE,ALL,HGEN,1,280.0/4.375000000000001e-07 $ ALLSEL
TIME,0.709418231 $ KBC,1 $ AUTOTS,OFF $ DELTIM,0.00026056162500000257 $ SOLVE
ESEL,S,MAT,,1 $ ESEL,R,CENT,Z,(0.0+0.0007)/2 $ BFE,ALL,HGEN,1,700.0/4.375000000000001e-07 $ ALLSEL
TIME,0.716173799 $ KBC,1 $ AUTOTS,OFF $ DELTIM,0.0008444459999999987 $ SOLVE
ESEL,S,MAT,,1 $ ESEL,R,CENT,Z,(0.0+0.0007)/2 $ BFE,ALL,HGEN,1,84.0/4.375000000000001e-07 $ ALLSEL
TIME,0.725431898 $ KBC,1 $ AUTOTS,OFF $ DELTIM,0.001 $ SOLVE
ESEL,S,MAT,,1 $ ESEL,R,CENT,Z,(0.0+0.0007)/2 $ BFE,ALL,HGEN,1,140.0/4.375000000000001e-07 $ ALLSEL
TIME,0.725508291 $ KBC,1 $ AUTOTS,OFF $ DELTIM,1.25e-05 $ SOLVE
ESEL,S,MAT,,1 $ ESEL,R,CENT,Z,(0.0+0.0007)/2 $ BFE,ALL,HGEN,1,700.0/4.375000000000001e-07 $ ALLSEL
TIME,0.737816257 $ KBC,1 $ AUTOTS,OFF $ DELTIM,0.001 $ SOLVE
ESEL,S,MAT,,1 $ ESEL,R,CENT,Z,(0.0+0.0007)/2 $ BFE,ALL,HGEN,1,140.0/4.375000000000001e-07 $ ALLSEL
TIME,0.737892648 $ KBC,1 $ AUTOTS,OFF $ DELTIM,1.25e-05 $ SOLVE
ESEL,S,MAT,,1 $ ESEL,R,CENT,Z,(0.0+0.0007)/2 $ BFE,ALL,HGEN,1,280.0/4.375000000000001e-07 $ ALLSEL
TIME,0.737956411 $ KBC,1 $ AUTOTS,OFF $ DELTIM,1.25e-05 $ SOLVE
ESEL,S,MAT,,1 $ ESEL,R,CENT,Z,(0.0+0.0007)/2 $ BFE,ALL,HGEN,1,84.0/4.375000000000001e-07 $ ALLSEL
TIME,0.748009277 $ KBC,1 $ AUTOTS,OFF $ DELTIM,0.001 $ SOLVE
ESEL,S,MAT,,1 $ ESEL,R,CENT,Z,(0.0+0.0007)/2 $ BFE,ALL,HGEN,1,280.0/4.375000000000001e-07 $ ALLSEL
TIME,0.75009377 $ KBC,1 $ AUTOTS,OFF $ DELTIM,0.00026056162500000257 $ SOLVE
ESEL,S,MAT,,1 $ ESEL,R,CENT,Z,(0.0+0.0007)/2 $ BFE,ALL,HGEN,1,700.0/4.375000000000001e-07 $ ALLSEL
TIME,0.756849338 $ KBC,1 $ AUTOTS,OFF $ DELTIM,0.0008444459999999987 $ SOLVE
ESEL,S,MAT,,1 $ ESEL,R,CENT,Z,(0.0+0.0007)/2 $ BFE,ALL,HGEN,1,84.0/4.375000000000001e-07 $ ALLSEL
TIME,0.766107437 $ KBC,1 $ AUTOTS,OFF $ DELTIM,0.001 $ SOLVE
ESEL,S,MAT,,1 $ ESEL,R,CENT,Z,(0.0+0.0007)/2 $ BFE,ALL,HGEN,1,140.0/4.375000000000001e-07 $ ALLSEL
TIME,0.76618383 $ KBC,1 $ AUTOTS,OFF $ DELTIM,1.25e-05 $ SOLVE
ESEL,S,MAT,,1 $ ESEL,R,CENT,Z,(0.0+0.0007)/2 $ BFE,ALL,HGEN,1,700.0/4.375000000000001e-07 $ ALLSEL
TIME,0.778491796 $ KBC,1 $ AUTOTS,OFF $ DELTIM,0.001 $ SOLVE
ESEL,S,MAT,,1 $ ESEL,R,CENT,Z,(0.0+0.0007)/2 $ BFE,ALL,HGEN,1,140.0/4.375000000000001e-07 $ ALLSEL
TIME,0.778568187 $ KBC,1 $ AUTOTS,OFF $ DELTIM,1.25e-05 $ SOLVE
ESEL,S,MAT,,1 $ ESEL,R,CENT,Z,(0.0+0.0007)/2 $ BFE,ALL,HGEN,1,280.0/4.375000000000001e-07 $ ALLSEL
TIME,0.778621595 $ KBC,1 $ AUTOTS,OFF $ DELTIM,1.25e-05 $ SOLVE
ESEL,S,MAT,,1 $ ESEL,R,CENT,Z,(0.0+0.0007)/2 $ BFE,ALL,HGEN,1,280.0/4.375000000000001e-07 $ ALLSEL
TIME,0.77863195 $ KBC,1 $ AUTOTS,OFF $ DELTIM,1.25e-05 $ SOLVE
ESEL,S,MAT,,1 $ ESEL,R,CENT,Z,(0.0+0.0007)/2 $ BFE,ALL,HGEN,1,84.0/4.375000000000001e-07 $ ALLSEL
TIME,0.788674461 $ KBC,1 $ AUTOTS,OFF $ DELTIM,0.001 $ SOLVE
ESEL,S,MAT,,1 $ ESEL,R,CENT,Z,(0.0+0.0007)/2 $ BFE,ALL,HGEN,1,280.0/4.375000000000001e-07 $ ALLSEL
TIME,0.790758954 $ KBC,1 $ AUTOTS,OFF $ DELTIM,0.0002605616249999887 $ SOLVE
ESEL,S,MAT,,1 $ ESEL,R,CENT,Z,(0.0+0.0007)/2 $ BFE,ALL,HGEN,1,700.0/4.375000000000001e-07 $ ALLSEL
TIME,0.797514522 $ KBC,1 $ AUTOTS,OFF $ DELTIM,0.0008444459999999987 $ SOLVE
ESEL,S,MAT,,1 $ ESEL,R,CENT,Z,(0.0+0.0007)/2 $ BFE,ALL,HGEN,1,84.0/4.375000000000001e-07 $ ALLSEL
TIME,0.806772537 $ KBC,1 $ AUTOTS,OFF $ DELTIM,0.001 $ SOLVE
ESEL,S,MAT,,1 $ ESEL,R,CENT,Z,(0.0+0.0007)/2 $ BFE,ALL,HGEN,1,140.0/4.375000000000001e-07 $ ALLSEL
TIME,0.80684893 $ KBC,1 $ AUTOTS,OFF $ DELTIM,1.25e-05 $ SOLVE
ESEL,S,MAT,,1 $ ESEL,R,CENT,Z,(0.0+0.0007)/2 $ BFE,ALL,HGEN,1,84.0/4.375000000000001e-07 $ ALLSEL
TIME,0.907422334 $ KBC,1 $ AUTOTS,OFF $ DELTIM,0.001 $ SOLVE
ESEL,S,MAT,,1 $ ESEL,R,CENT,Z,(0.0+0.0007)/2 $ BFE,ALL,HGEN,1,140.0/4.375000000000001e-07 $ ALLSEL
TIME,0.907573812 $ KBC,1 $ AUTOTS,OFF $ DELTIM,1.8934749999990896e-05 $ SOLVE
ESEL,S,MAT,,1 $ ESEL,R,CENT,Z,(0.0+0.0007)/2 $ BFE,ALL,HGEN,1,280.0/4.375000000000001e-07 $ ALLSEL
TIME,0.907577232 $ KBC,1 $ AUTOTS,OFF $ DELTIM,1.25e-05 $ SOLVE
ESEL,S,MAT,,1 $ ESEL,R,CENT,Z,(0.0+0.0007)/2 $ BFE,ALL,HGEN,1,84.0/4.375000000000001e-07 $ ALLSEL
TIME,0.917626678 $ KBC,1 $ AUTOTS,OFF $ DELTIM,0.001 $ SOLVE
ESEL,S,MAT,,1 $ ESEL,R,CENT,Z,(0.0+0.0007)/2 $ BFE,ALL,HGEN,1,280.0/4.375000000000001e-07 $ ALLSEL
TIME,0.917718172 $ KBC,1 $ AUTOTS,OFF $ DELTIM,1.25e-05 $ SOLVE
ESEL,S,MAT,,1 $ ESEL,R,CENT,Z,(0.0+0.0007)/2 $ BFE,ALL,HGEN,1,700.0/4.375000000000001e-07 $ ALLSEL
TIME,0.922310051 $ KBC,1 $ AUTOTS,OFF $ DELTIM,0.0005739848749999887 $ SOLVE
ESEL,S,MAT,,1 $ ESEL,R,CENT,Z,(0.0+0.0007)/2 $ BFE,ALL,HGEN,1,84.0/4.375000000000001e-07 $ ALLSEL
TIME,0.931261778 $ KBC,1 $ AUTOTS,OFF $ DELTIM,0.001 $ SOLVE
ESEL,S,MAT,,1 $ ESEL,R,CENT,Z,(0.0+0.0007)/2 $ BFE,ALL,HGEN,1,280.0/4.375000000000001e-07 $ ALLSEL
TIME,0.931383848 $ KBC,1 $ AUTOTS,OFF $ DELTIM,1.5258749999996768e-05 $ SOLVE
ESEL,S,MAT,,1 $ ESEL,R,CENT,Z,(0.0+0.0007)/2 $ BFE,ALL,HGEN,1,140.0/4.375000000000001e-07 $ ALLSEL
TIME,0.931535315 $ KBC,1 $ AUTOTS,OFF $ DELTIM,1.893337500000203e-05 $ SOLVE
ESEL,S,MAT,,1 $ ESEL,R,CENT,Z,(0.0+0.0007)/2 $ BFE,ALL,HGEN,1,700.0/4.375000000000001e-07 $ ALLSEL
TIME,0.956151247 $ KBC,1 $ AUTOTS,OFF $ DELTIM,0.001 $ SOLVE
ESEL,S,MAT,,1 $ ESEL,R,CENT,Z,(0.0+0.0007)/2 $ BFE,ALL,HGEN,1,84.0/4.375000000000001e-07 $ ALLSEL
TIME,0.959865402 $ KBC,1 $ AUTOTS,OFF $ DELTIM,0.00046426937500000653 $ SOLVE
ESEL,S,MAT,,1 $ ESEL,R,CENT,Z,(0.0+0.0007)/2 $ BFE,ALL,HGEN,1,140.0/4.375000000000001e-07 $ ALLSEL
TIME,0.960016879 $ KBC,1 $ AUTOTS,OFF $ DELTIM,1.893462499999443e-05 $ SOLVE
ESEL,S,MAT,,1 $ ESEL,R,CENT,Z,(0.0+0.0007)/2 $ BFE,ALL,HGEN,1,280.0/4.375000000000001e-07 $ ALLSEL
TIME,0.9600203 $ KBC,1 $ AUTOTS,OFF $ DELTIM,1.25e-05 $ SOLVE
ESEL,S,MAT,,1 $ ESEL,R,CENT,Z,(0.0+0.0007)/2 $ BFE,ALL,HGEN,1,84.0/4.375000000000001e-07 $ ALLSEL
TIME,0.970069746 $ KBC,1 $ AUTOTS,OFF $ DELTIM,0.001 $ SOLVE
ESEL,S,MAT,,1 $ ESEL,R,CENT,Z,(0.0+0.0007)/2 $ BFE,ALL,HGEN,1,280.0/4.375000000000001e-07 $ ALLSEL
TIME,0.97016124 $ KBC,1 $ AUTOTS,OFF $ DELTIM,1.25e-05 $ SOLVE
ESEL,S,MAT,,1 $ ESEL,R,CENT,Z,(0.0+0.0007)/2 $ BFE,ALL,HGEN,1,700.0/4.375000000000001e-07 $ ALLSEL
TIME,0.974753118 $ KBC,1 $ AUTOTS,OFF $ DELTIM,0.0005739847499999923 $ SOLVE
ESEL,S,MAT,,1 $ ESEL,R,CENT,Z,(0.0+0.0007)/2 $ BFE,ALL,HGEN,1,84.0/4.375000000000001e-07 $ ALLSEL
TIME,0.983598107 $ KBC,1 $ AUTOTS,OFF $ DELTIM,0.001 $ SOLVE
ESEL,S,MAT,,1 $ ESEL,R,CENT,Z,(0.0+0.0007)/2 $ BFE,ALL,HGEN,1,280.0/4.375000000000001e-07 $ ALLSEL
TIME,0.983720177 $ KBC,1 $ AUTOTS,OFF $ DELTIM,1.5258749999996768e-05 $ SOLVE
ESEL,S,MAT,,1 $ ESEL,R,CENT,Z,(0.0+0.0007)/2 $ BFE,ALL,HGEN,1,140.0/4.375000000000001e-07 $ ALLSEL
TIME,0.983871644 $ KBC,1 $ AUTOTS,OFF $ DELTIM,1.893337500000203e-05 $ SOLVE
ESEL,S,MAT,,1 $ ESEL,R,CENT,Z,(0.0+0.0007)/2 $ BFE,ALL,HGEN,1,700.0/4.375000000000001e-07 $ ALLSEL
TIME,1.008487576 $ KBC,1 $ AUTOTS,OFF $ DELTIM,0.001 $ SOLVE
ESEL,S,MAT,,1 $ ESEL,R,CENT,Z,(0.0+0.0007)/2 $ BFE,ALL,HGEN,1,84.0/4.375000000000001e-07 $ ALLSEL
TIME,1.053483538 $ KBC,1 $ AUTOTS,OFF $ DELTIM,0.001 $ SOLVE
ESEL,S,MAT,,1 $ ESEL,R,CENT,Z,(0.0+0.0007)/2 $ BFE,ALL,HGEN,1,140.0/4.375000000000001e-07 $ ALLSEL
TIME,1.053635015 $ KBC,1 $ AUTOTS,OFF $ DELTIM,1.893462499999443e-05 $ SOLVE
ESEL,S,MAT,,1 $ ESEL,R,CENT,Z,(0.0+0.0007)/2 $ BFE,ALL,HGEN,1,280.0/4.375000000000001e-07 $ ALLSEL
TIME,1.053638436 $ KBC,1 $ AUTOTS,OFF $ DELTIM,1.25e-05 $ SOLVE
ESEL,S,MAT,,1 $ ESEL,R,CENT,Z,(0.0+0.0007)/2 $ BFE,ALL,HGEN,1,84.0/4.375000000000001e-07 $ ALLSEL
TIME,1.063687881 $ KBC,1 $ AUTOTS,OFF $ DELTIM,0.001 $ SOLVE
ESEL,S,MAT,,1 $ ESEL,R,CENT,Z,(0.0+0.0007)/2 $ BFE,ALL,HGEN,1,280.0/4.375000000000001e-07 $ ALLSEL
TIME,1.063779376 $ KBC,1 $ AUTOTS,OFF $ DELTIM,1.25e-05 $ SOLVE
ESEL,S,MAT,,1 $ ESEL,R,CENT,Z,(0.0+0.0007)/2 $ BFE,ALL,HGEN,1,700.0/4.375000000000001e-07 $ ALLSEL
TIME,1.068371254 $ KBC,1 $ AUTOTS,OFF $ DELTIM,0.0005739847500000061 $ SOLVE
ESEL,S,MAT,,1 $ ESEL,R,CENT,Z,(0.0+0.0007)/2 $ BFE,ALL,HGEN,1,84.0/4.375000000000001e-07 $ ALLSEL
TIME,1.077265915 $ KBC,1 $ AUTOTS,OFF $ DELTIM,0.001 $ SOLVE
ESEL,S,MAT,,1 $ ESEL,R,CENT,Z,(0.0+0.0007)/2 $ BFE,ALL,HGEN,1,280.0/4.375000000000001e-07 $ ALLSEL
TIME,1.077387986 $ KBC,1 $ AUTOTS,OFF $ DELTIM,1.525887500000711e-05 $ SOLVE
ESEL,S,MAT,,1 $ ESEL,R,CENT,Z,(0.0+0.0007)/2 $ BFE,ALL,HGEN,1,140.0/4.375000000000001e-07 $ ALLSEL
TIME,1.077539453 $ KBC,1 $ AUTOTS,OFF $ DELTIM,1.893337500000203e-05 $ SOLVE
ESEL,S,MAT,,1 $ ESEL,R,CENT,Z,(0.0+0.0007)/2 $ BFE,ALL,HGEN,1,700.0/4.375000000000001e-07 $ ALLSEL
TIME,1.102155385 $ KBC,1 $ AUTOTS,OFF $ DELTIM,0.001 $ SOLVE
ESEL,S,MAT,,1 $ ESEL,R,CENT,Z,(0.0+0.0007)/2 $ BFE,ALL,HGEN,1,84.0/4.375000000000001e-07 $ ALLSEL
TIME,1.109831446 $ KBC,1 $ AUTOTS,OFF $ DELTIM,0.0009595076249999945 $ SOLVE
ESEL,S,MAT,,1 $ ESEL,R,CENT,Z,(0.0+0.0007)/2 $ BFE,ALL,HGEN,1,140.0/4.375000000000001e-07 $ ALLSEL
TIME,1.109982923 $ KBC,1 $ AUTOTS,OFF $ DELTIM,1.893462499999443e-05 $ SOLVE
ESEL,S,MAT,,1 $ ESEL,R,CENT,Z,(0.0+0.0007)/2 $ BFE,ALL,HGEN,1,280.0/4.375000000000001e-07 $ ALLSEL
TIME,1.109986344 $ KBC,1 $ AUTOTS,OFF $ DELTIM,1.25e-05 $ SOLVE
ESEL,S,MAT,,1 $ ESEL,R,CENT,Z,(0.0+0.0007)/2 $ BFE,ALL,HGEN,1,84.0/4.375000000000001e-07 $ ALLSEL
TIME,1.120035789 $ KBC,1 $ AUTOTS,OFF $ DELTIM,0.001 $ SOLVE
ESEL,S,MAT,,1 $ ESEL,R,CENT,Z,(0.0+0.0007)/2 $ BFE,ALL,HGEN,1,280.0/4.375000000000001e-07 $ ALLSEL
TIME,1.120127284 $ KBC,1 $ AUTOTS,OFF $ DELTIM,1.25e-05 $ SOLVE
ESEL,S,MAT,,1 $ ESEL,R,CENT,Z,(0.0+0.0007)/2 $ BFE,ALL,HGEN,1,700.0/4.375000000000001e-07 $ ALLSEL
TIME,1.124719162 $ KBC,1 $ AUTOTS,OFF $ DELTIM,0.0005739847500000061 $ SOLVE
ESEL,S,MAT,,1 $ ESEL,R,CENT,Z,(0.0+0.0007)/2 $ BFE,ALL,HGEN,1,84.0/4.375000000000001e-07 $ ALLSEL
TIME,1.133663412 $ KBC,1 $ AUTOTS,OFF $ DELTIM,0.001 $ SOLVE
ESEL,S,MAT,,1 $ ESEL,R,CENT,Z,(0.0+0.0007)/2 $ BFE,ALL,HGEN,1,280.0/4.375000000000001e-07 $ ALLSEL
TIME,1.133785483 $ KBC,1 $ AUTOTS,OFF $ DELTIM,1.525887500000711e-05 $ SOLVE
ESEL,S,MAT,,1 $ ESEL,R,CENT,Z,(0.0+0.0007)/2 $ BFE,ALL,HGEN,1,140.0/4.375000000000001e-07 $ ALLSEL
TIME,1.13393695 $ KBC,1 $ AUTOTS,OFF $ DELTIM,1.893337500000203e-05 $ SOLVE
ESEL,S,MAT,,1 $ ESEL,R,CENT,Z,(0.0+0.0007)/2 $ BFE,ALL,HGEN,1,700.0/4.375000000000001e-07 $ ALLSEL
TIME,1.158552882 $ KBC,1 $ AUTOTS,OFF $ DELTIM,0.001 $ SOLVE
ESEL,S,MAT,,1 $ ESEL,R,CENT,Z,(0.0+0.0007)/2 $ BFE,ALL,HGEN,1,84.0/4.375000000000001e-07 $ ALLSEL
TIME,1.206983393 $ KBC,1 $ AUTOTS,OFF $ DELTIM,0.001 $ SOLVE
ESEL,S,MAT,,1 $ ESEL,R,CENT,Z,(0.0+0.0007)/2 $ BFE,ALL,HGEN,1,84.0/4.375000000000001e-07 $ ALLSEL
TIME,1.24764891 $ KBC,1 $ AUTOTS,OFF $ DELTIM,0.001 $ SOLVE
ESEL,S,MAT,,1 $ ESEL,R,CENT,Z,(0.0+0.0007)/2 $ BFE,ALL,HGEN,1,700.0/4.375000000000001e-07 $ ALLSEL
TIME,1.259956876 $ KBC,1 $ AUTOTS,OFF $ DELTIM,0.001 $ SOLVE
ESEL,S,MAT,,1 $ ESEL,R,CENT,Z,(0.0+0.0007)/2 $ BFE,ALL,HGEN,1,140.0/4.375000000000001e-07 $ ALLSEL
TIME,1.260033266 $ KBC,1 $ AUTOTS,OFF $ DELTIM,1.25e-05 $ SOLVE
ESEL,S,MAT,,1 $ ESEL,R,CENT,Z,(0.0+0.0007)/2 $ BFE,ALL,HGEN,1,280.0/4.375000000000001e-07 $ ALLSEL
TIME,1.26009703 $ KBC,1 $ AUTOTS,OFF $ DELTIM,1.25e-05 $ SOLVE
ESEL,S,MAT,,1 $ ESEL,R,CENT,Z,(0.0+0.0007)/2 $ BFE,ALL,HGEN,1,84.0/4.375000000000001e-07 $ ALLSEL
TIME,1.270149896 $ KBC,1 $ AUTOTS,OFF $ DELTIM,0.001 $ SOLVE
ESEL,S,MAT,,1 $ ESEL,R,CENT,Z,(0.0+0.0007)/2 $ BFE,ALL,HGEN,1,280.0/4.375000000000001e-07 $ ALLSEL
TIME,1.272234389 $ KBC,1 $ AUTOTS,OFF $ DELTIM,0.00026056162500001645 $ SOLVE
ESEL,S,MAT,,1 $ ESEL,R,CENT,Z,(0.0+0.0007)/2 $ BFE,ALL,HGEN,1,700.0/4.375000000000001e-07 $ ALLSEL
TIME,1.278989957 $ KBC,1 $ AUTOTS,OFF $ DELTIM,0.0008444459999999987 $ SOLVE
ESEL,S,MAT,,1 $ ESEL,R,CENT,Z,(0.0+0.0007)/2 $ BFE,ALL,HGEN,1,84.0/4.375000000000001e-07 $ ALLSEL
TIME,1.288248055 $ KBC,1 $ AUTOTS,OFF $ DELTIM,0.001 $ SOLVE
ESEL,S,MAT,,1 $ ESEL,R,CENT,Z,(0.0+0.0007)/2 $ BFE,ALL,HGEN,1,140.0/4.375000000000001e-07 $ ALLSEL
TIME,1.288324449 $ KBC,1 $ AUTOTS,OFF $ DELTIM,1.25e-05 $ SOLVE
ESEL,S,MAT,,1 $ ESEL,R,CENT,Z,(0.0+0.0007)/2 $ BFE,ALL,HGEN,1,700.0/4.375000000000001e-07 $ ALLSEL
TIME,1.300632415 $ KBC,1 $ AUTOTS,OFF $ DELTIM,0.001 $ SOLVE
ESEL,S,MAT,,1 $ ESEL,R,CENT,Z,(0.0+0.0007)/2 $ BFE,ALL,HGEN,1,140.0/4.375000000000001e-07 $ ALLSEL
TIME,1.300708805 $ KBC,1 $ AUTOTS,OFF $ DELTIM,1.25e-05 $ SOLVE
ESEL,S,MAT,,1 $ ESEL,R,CENT,Z,(0.0+0.0007)/2 $ BFE,ALL,HGEN,1,280.0/4.375000000000001e-07 $ ALLSEL
TIME,1.300772569 $ KBC,1 $ AUTOTS,OFF $ DELTIM,1.25e-05 $ SOLVE
ESEL,S,MAT,,1 $ ESEL,R,CENT,Z,(0.0+0.0007)/2 $ BFE,ALL,HGEN,1,84.0/4.375000000000001e-07 $ ALLSEL
TIME,1.310825435 $ KBC,1 $ AUTOTS,OFF $ DELTIM,0.001 $ SOLVE
ESEL,S,MAT,,1 $ ESEL,R,CENT,Z,(0.0+0.0007)/2 $ BFE,ALL,HGEN,1,280.0/4.375000000000001e-07 $ ALLSEL
TIME,1.312909928 $ KBC,1 $ AUTOTS,OFF $ DELTIM,0.00026056162500001645 $ SOLVE
ESEL,S,MAT,,1 $ ESEL,R,CENT,Z,(0.0+0.0007)/2 $ BFE,ALL,HGEN,1,700.0/4.375000000000001e-07 $ ALLSEL
TIME,1.319665496 $ KBC,1 $ AUTOTS,OFF $ DELTIM,0.0008444459999999987 $ SOLVE
ESEL,S,MAT,,1 $ ESEL,R,CENT,Z,(0.0+0.0007)/2 $ BFE,ALL,HGEN,1,84.0/4.375000000000001e-07 $ ALLSEL
TIME,1.328923594 $ KBC,1 $ AUTOTS,OFF $ DELTIM,0.001 $ SOLVE
ESEL,S,MAT,,1 $ ESEL,R,CENT,Z,(0.0+0.0007)/2 $ BFE,ALL,HGEN,1,140.0/4.375000000000001e-07 $ ALLSEL
TIME,1.328999987 $ KBC,1 $ AUTOTS,OFF $ DELTIM,1.25e-05 $ SOLVE
ESEL,S,MAT,,1 $ ESEL,R,CENT,Z,(0.0+0.0007)/2 $ BFE,ALL,HGEN,1,700.0/4.375000000000001e-07 $ ALLSEL
TIME,1.341307953 $ KBC,1 $ AUTOTS,OFF $ DELTIM,0.001 $ SOLVE
ESEL,S,MAT,,1 $ ESEL,R,CENT,Z,(0.0+0.0007)/2 $ BFE,ALL,HGEN,1,140.0/4.375000000000001e-07 $ ALLSEL
TIME,1.341384344 $ KBC,1 $ AUTOTS,OFF $ DELTIM,1.25e-05 $ SOLVE
ESEL,S,MAT,,1 $ ESEL,R,CENT,Z,(0.0+0.0007)/2 $ BFE,ALL,HGEN,1,280.0/4.375000000000001e-07 $ ALLSEL
TIME,1.341448107 $ KBC,1 $ AUTOTS,OFF $ DELTIM,1.25e-05 $ SOLVE
ESEL,S,MAT,,1 $ ESEL,R,CENT,Z,(0.0+0.0007)/2 $ BFE,ALL,HGEN,1,84.0/4.375000000000001e-07 $ ALLSEL
TIME,1.351500974 $ KBC,1 $ AUTOTS,OFF $ DELTIM,0.001 $ SOLVE
ESEL,S,MAT,,1 $ ESEL,R,CENT,Z,(0.0+0.0007)/2 $ BFE,ALL,HGEN,1,280.0/4.375000000000001e-07 $ ALLSEL
TIME,1.353585466 $ KBC,1 $ AUTOTS,OFF $ DELTIM,0.0002605615000000061 $ SOLVE
ESEL,S,MAT,,1 $ ESEL,R,CENT,Z,(0.0+0.0007)/2 $ BFE,ALL,HGEN,1,700.0/4.375000000000001e-07 $ ALLSEL
TIME,1.360341035 $ KBC,1 $ AUTOTS,OFF $ DELTIM,0.000844446125000009 $ SOLVE
ESEL,S,MAT,,1 $ ESEL,R,CENT,Z,(0.0+0.0007)/2 $ BFE,ALL,HGEN,1,84.0/4.375000000000001e-07 $ ALLSEL
TIME,1.369599133 $ KBC,1 $ AUTOTS,OFF $ DELTIM,0.001 $ SOLVE
ESEL,S,MAT,,1 $ ESEL,R,CENT,Z,(0.0+0.0007)/2 $ BFE,ALL,HGEN,1,140.0/4.375000000000001e-07 $ ALLSEL
TIME,1.369675526 $ KBC,1 $ AUTOTS,OFF $ DELTIM,1.25e-05 $ SOLVE
ESEL,S,MAT,,1 $ ESEL,R,CENT,Z,(0.0+0.0007)/2 $ BFE,ALL,HGEN,1,700.0/4.375000000000001e-07 $ ALLSEL
TIME,1.381983492 $ KBC,1 $ AUTOTS,OFF $ DELTIM,0.001 $ SOLVE
ESEL,S,MAT,,1 $ ESEL,R,CENT,Z,(0.0+0.0007)/2 $ BFE,ALL,HGEN,1,140.0/4.375000000000001e-07 $ ALLSEL
TIME,1.382059883 $ KBC,1 $ AUTOTS,OFF $ DELTIM,1.25e-05 $ SOLVE
ESEL,S,MAT,,1 $ ESEL,R,CENT,Z,(0.0+0.0007)/2 $ BFE,ALL,HGEN,1,280.0/4.375000000000001e-07 $ ALLSEL
TIME,1.382113291 $ KBC,1 $ AUTOTS,OFF $ DELTIM,1.25e-05 $ SOLVE
ESEL,S,MAT,,1 $ ESEL,R,CENT,Z,(0.0+0.0007)/2 $ BFE,ALL,HGEN,1,280.0/4.375000000000001e-07 $ ALLSEL
TIME,1.382123646 $ KBC,1 $ AUTOTS,OFF $ DELTIM,1.25e-05 $ SOLVE
ESEL,S,MAT,,1 $ ESEL,R,CENT,Z,(0.0+0.0007)/2 $ BFE,ALL,HGEN,1,84.0/4.375000000000001e-07 $ ALLSEL
TIME,1.392166157 $ KBC,1 $ AUTOTS,OFF $ DELTIM,0.001 $ SOLVE
ESEL,S,MAT,,1 $ ESEL,R,CENT,Z,(0.0+0.0007)/2 $ BFE,ALL,HGEN,1,280.0/4.375000000000001e-07 $ ALLSEL
TIME,1.39425065 $ KBC,1 $ AUTOTS,OFF $ DELTIM,0.00026056162500001645 $ SOLVE
ESEL,S,MAT,,1 $ ESEL,R,CENT,Z,(0.0+0.0007)/2 $ BFE,ALL,HGEN,1,700.0/4.375000000000001e-07 $ ALLSEL
TIME,1.401006218 $ KBC,1 $ AUTOTS,OFF $ DELTIM,0.0008444459999999987 $ SOLVE
ESEL,S,MAT,,1 $ ESEL,R,CENT,Z,(0.0+0.0007)/2 $ BFE,ALL,HGEN,1,84.0/4.375000000000001e-07 $ ALLSEL
TIME,1.410264233 $ KBC,1 $ AUTOTS,OFF $ DELTIM,0.001 $ SOLVE
ESEL,S,MAT,,1 $ ESEL,R,CENT,Z,(0.0+0.0007)/2 $ BFE,ALL,HGEN,1,140.0/4.375000000000001e-07 $ ALLSEL
TIME,1.410340626 $ KBC,1 $ AUTOTS,OFF $ DELTIM,1.25e-05 $ SOLVE
ESEL,S,MAT,,1 $ ESEL,R,CENT,Z,(0.0+0.0007)/2 $ BFE,ALL,HGEN,1,84.0/4.375000000000001e-07 $ ALLSEL
TIME,1.510914031 $ KBC,1 $ AUTOTS,OFF $ DELTIM,0.001 $ SOLVE
ESEL,S,MAT,,1 $ ESEL,R,CENT,Z,(0.0+0.0007)/2 $ BFE,ALL,HGEN,1,140.0/4.375000000000001e-07 $ ALLSEL
TIME,1.511065508 $ KBC,1 $ AUTOTS,OFF $ DELTIM,1.893462499999443e-05 $ SOLVE
ESEL,S,MAT,,1 $ ESEL,R,CENT,Z,(0.0+0.0007)/2 $ BFE,ALL,HGEN,1,280.0/4.375000000000001e-07 $ ALLSEL
TIME,1.511068929 $ KBC,1 $ AUTOTS,OFF $ DELTIM,1.25e-05 $ SOLVE
ESEL,S,MAT,,1 $ ESEL,R,CENT,Z,(0.0+0.0007)/2 $ BFE,ALL,HGEN,1,84.0/4.375000000000001e-07 $ ALLSEL
TIME,1.521118374 $ KBC,1 $ AUTOTS,OFF $ DELTIM,0.001 $ SOLVE
ESEL,S,MAT,,1 $ ESEL,R,CENT,Z,(0.0+0.0007)/2 $ BFE,ALL,HGEN,1,280.0/4.375000000000001e-07 $ ALLSEL
TIME,1.521209869 $ KBC,1 $ AUTOTS,OFF $ DELTIM,1.25e-05 $ SOLVE
ESEL,S,MAT,,1 $ ESEL,R,CENT,Z,(0.0+0.0007)/2 $ BFE,ALL,HGEN,1,700.0/4.375000000000001e-07 $ ALLSEL
TIME,1.525801747 $ KBC,1 $ AUTOTS,OFF $ DELTIM,0.0005739847500000061 $ SOLVE
ESEL,S,MAT,,1 $ ESEL,R,CENT,Z,(0.0+0.0007)/2 $ BFE,ALL,HGEN,1,84.0/4.375000000000001e-07 $ ALLSEL
TIME,1.534753474 $ KBC,1 $ AUTOTS,OFF $ DELTIM,0.001 $ SOLVE
ESEL,S,MAT,,1 $ ESEL,R,CENT,Z,(0.0+0.0007)/2 $ BFE,ALL,HGEN,1,280.0/4.375000000000001e-07 $ ALLSEL
TIME,1.534875545 $ KBC,1 $ AUTOTS,OFF $ DELTIM,1.525887500000711e-05 $ SOLVE
ESEL,S,MAT,,1 $ ESEL,R,CENT,Z,(0.0+0.0007)/2 $ BFE,ALL,HGEN,1,140.0/4.375000000000001e-07 $ ALLSEL
TIME,1.535027012 $ KBC,1 $ AUTOTS,OFF $ DELTIM,1.893337500000203e-05 $ SOLVE
ESEL,S,MAT,,1 $ ESEL,R,CENT,Z,(0.0+0.0007)/2 $ BFE,ALL,HGEN,1,700.0/4.375000000000001e-07 $ ALLSEL
TIME,1.559642944 $ KBC,1 $ AUTOTS,OFF $ DELTIM,0.001 $ SOLVE
ESEL,S,MAT,,1 $ ESEL,R,CENT,Z,(0.0+0.0007)/2 $ BFE,ALL,HGEN,1,84.0/4.375000000000001e-07 $ ALLSEL
TIME,1.563357099 $ KBC,1 $ AUTOTS,OFF $ DELTIM,0.0004642693750000204 $ SOLVE
ESEL,S,MAT,,1 $ ESEL,R,CENT,Z,(0.0+0.0007)/2 $ BFE,ALL,HGEN,1,140.0/4.375000000000001e-07 $ ALLSEL
TIME,1.563508576 $ KBC,1 $ AUTOTS,OFF $ DELTIM,1.893462499999443e-05 $ SOLVE
ESEL,S,MAT,,1 $ ESEL,R,CENT,Z,(0.0+0.0007)/2 $ BFE,ALL,HGEN,1,280.0/4.375000000000001e-07 $ ALLSEL
TIME,1.563511996 $ KBC,1 $ AUTOTS,OFF $ DELTIM,1.25e-05 $ SOLVE
ESEL,S,MAT,,1 $ ESEL,R,CENT,Z,(0.0+0.0007)/2 $ BFE,ALL,HGEN,1,84.0/4.375000000000001e-07 $ ALLSEL
TIME,1.573561442 $ KBC,1 $ AUTOTS,OFF $ DELTIM,0.001 $ SOLVE
ESEL,S,MAT,,1 $ ESEL,R,CENT,Z,(0.0+0.0007)/2 $ BFE,ALL,HGEN,1,280.0/4.375000000000001e-07 $ ALLSEL
TIME,1.573652936 $ KBC,1 $ AUTOTS,OFF $ DELTIM,1.25e-05 $ SOLVE
ESEL,S,MAT,,1 $ ESEL,R,CENT,Z,(0.0+0.0007)/2 $ BFE,ALL,HGEN,1,700.0/4.375000000000001e-07 $ ALLSEL
TIME,1.578244815 $ KBC,1 $ AUTOTS,OFF $ DELTIM,0.0005739848749999887 $ SOLVE
ESEL,S,MAT,,1 $ ESEL,R,CENT,Z,(0.0+0.0007)/2 $ BFE,ALL,HGEN,1,84.0/4.375000000000001e-07 $ ALLSEL
TIME,1.587089803 $ KBC,1 $ AUTOTS,OFF $ DELTIM,0.001 $ SOLVE
ESEL,S,MAT,,1 $ ESEL,R,CENT,Z,(0.0+0.0007)/2 $ BFE,ALL,HGEN,1,280.0/4.375000000000001e-07 $ ALLSEL
TIME,1.587211874 $ KBC,1 $ AUTOTS,OFF $ DELTIM,1.525887500000711e-05 $ SOLVE
ESEL,S,MAT,,1 $ ESEL,R,CENT,Z,(0.0+0.0007)/2 $ BFE,ALL,HGEN,1,140.0/4.375000000000001e-07 $ ALLSEL
TIME,1.587363341 $ KBC,1 $ AUTOTS,OFF $ DELTIM,1.893337500000203e-05 $ SOLVE
ESEL,S,MAT,,1 $ ESEL,R,CENT,Z,(0.0+0.0007)/2 $ BFE,ALL,HGEN,1,700.0/4.375000000000001e-07 $ ALLSEL
TIME,1.611979273 $ KBC,1 $ AUTOTS,OFF $ DELTIM,0.001 $ SOLVE
ESEL,S,MAT,,1 $ ESEL,R,CENT,Z,(0.0+0.0007)/2 $ BFE,ALL,HGEN,1,84.0/4.375000000000001e-07 $ ALLSEL
TIME,1.656975234 $ KBC,1 $ AUTOTS,OFF $ DELTIM,0.001 $ SOLVE
ESEL,S,MAT,,1 $ ESEL,R,CENT,Z,(0.0+0.0007)/2 $ BFE,ALL,HGEN,1,140.0/4.375000000000001e-07 $ ALLSEL
TIME,1.657126711 $ KBC,1 $ AUTOTS,OFF $ DELTIM,1.8934625000022187e-05 $ SOLVE
ESEL,S,MAT,,1 $ ESEL,R,CENT,Z,(0.0+0.0007)/2 $ BFE,ALL,HGEN,1,280.0/4.375000000000001e-07 $ ALLSEL
TIME,1.657130132 $ KBC,1 $ AUTOTS,OFF $ DELTIM,1.25e-05 $ SOLVE
ESEL,S,MAT,,1 $ ESEL,R,CENT,Z,(0.0+0.0007)/2 $ BFE,ALL,HGEN,1,84.0/4.375000000000001e-07 $ ALLSEL
TIME,1.667179578 $ KBC,1 $ AUTOTS,OFF $ DELTIM,0.001 $ SOLVE
ESEL,S,MAT,,1 $ ESEL,R,CENT,Z,(0.0+0.0007)/2 $ BFE,ALL,HGEN,1,280.0/4.375000000000001e-07 $ ALLSEL
TIME,1.667271072 $ KBC,1 $ AUTOTS,OFF $ DELTIM,1.25e-05 $ SOLVE
ESEL,S,MAT,,1 $ ESEL,R,CENT,Z,(0.0+0.0007)/2 $ BFE,ALL,HGEN,1,700.0/4.375000000000001e-07 $ ALLSEL
TIME,1.671862951 $ KBC,1 $ AUTOTS,OFF $ DELTIM,0.0005739848750000165 $ SOLVE
ESEL,S,MAT,,1 $ ESEL,R,CENT,Z,(0.0+0.0007)/2 $ BFE,ALL,HGEN,1,84.0/4.375000000000001e-07 $ ALLSEL
TIME,1.680757612 $ KBC,1 $ AUTOTS,OFF $ DELTIM,0.001 $ SOLVE
ESEL,S,MAT,,1 $ ESEL,R,CENT,Z,(0.0+0.0007)/2 $ BFE,ALL,HGEN,1,280.0/4.375000000000001e-07 $ ALLSEL
TIME,1.680879682 $ KBC,1 $ AUTOTS,OFF $ DELTIM,1.5258749999996768e-05 $ SOLVE
ESEL,S,MAT,,1 $ ESEL,R,CENT,Z,(0.0+0.0007)/2 $ BFE,ALL,HGEN,1,140.0/4.375000000000001e-07 $ ALLSEL
TIME,1.681031149 $ KBC,1 $ AUTOTS,OFF $ DELTIM,1.893337500000203e-05 $ SOLVE
ESEL,S,MAT,,1 $ ESEL,R,CENT,Z,(0.0+0.0007)/2 $ BFE,ALL,HGEN,1,700.0/4.375000000000001e-07 $ ALLSEL
TIME,1.705647081 $ KBC,1 $ AUTOTS,OFF $ DELTIM,0.001 $ SOLVE
ESEL,S,MAT,,1 $ ESEL,R,CENT,Z,(0.0+0.0007)/2 $ BFE,ALL,HGEN,1,84.0/4.375000000000001e-07 $ ALLSEL
TIME,1.713323142 $ KBC,1 $ AUTOTS,OFF $ DELTIM,0.0009595076249999945 $ SOLVE
ESEL,S,MAT,,1 $ ESEL,R,CENT,Z,(0.0+0.0007)/2 $ BFE,ALL,HGEN,1,140.0/4.375000000000001e-07 $ ALLSEL
TIME,1.713474619 $ KBC,1 $ AUTOTS,OFF $ DELTIM,1.8934625000022187e-05 $ SOLVE
ESEL,S,MAT,,1 $ ESEL,R,CENT,Z,(0.0+0.0007)/2 $ BFE,ALL,HGEN,1,280.0/4.375000000000001e-07 $ ALLSEL
TIME,1.71347804 $ KBC,1 $ AUTOTS,OFF $ DELTIM,1.25e-05 $ SOLVE
ESEL,S,MAT,,1 $ ESEL,R,CENT,Z,(0.0+0.0007)/2 $ BFE,ALL,HGEN,1,84.0/4.375000000000001e-07 $ ALLSEL
TIME,1.723527486 $ KBC,1 $ AUTOTS,OFF $ DELTIM,0.001 $ SOLVE
ESEL,S,MAT,,1 $ ESEL,R,CENT,Z,(0.0+0.0007)/2 $ BFE,ALL,HGEN,1,280.0/4.375000000000001e-07 $ ALLSEL
TIME,1.72361898 $ KBC,1 $ AUTOTS,OFF $ DELTIM,1.25e-05 $ SOLVE
ESEL,S,MAT,,1 $ ESEL,R,CENT,Z,(0.0+0.0007)/2 $ BFE,ALL,HGEN,1,700.0/4.375000000000001e-07 $ ALLSEL
TIME,1.728210858 $ KBC,1 $ AUTOTS,OFF $ DELTIM,0.0005739847500000061 $ SOLVE
ESEL,S,MAT,,1 $ ESEL,R,CENT,Z,(0.0+0.0007)/2 $ BFE,ALL,HGEN,1,84.0/4.375000000000001e-07 $ ALLSEL
TIME,1.737155109 $ KBC,1 $ AUTOTS,OFF $ DELTIM,0.001 $ SOLVE
ESEL,S,MAT,,1 $ ESEL,R,CENT,Z,(0.0+0.0007)/2 $ BFE,ALL,HGEN,1,280.0/4.375000000000001e-07 $ ALLSEL
TIME,1.737277179 $ KBC,1 $ AUTOTS,OFF $ DELTIM,1.5258749999996768e-05 $ SOLVE
ESEL,S,MAT,,1 $ ESEL,R,CENT,Z,(0.0+0.0007)/2 $ BFE,ALL,HGEN,1,140.0/4.375000000000001e-07 $ ALLSEL
TIME,1.737428646 $ KBC,1 $ AUTOTS,OFF $ DELTIM,1.893337500000203e-05 $ SOLVE
ESEL,S,MAT,,1 $ ESEL,R,CENT,Z,(0.0+0.0007)/2 $ BFE,ALL,HGEN,1,700.0/4.375000000000001e-07 $ ALLSEL
TIME,1.762044578 $ KBC,1 $ AUTOTS,OFF $ DELTIM,0.001 $ SOLVE
ESEL,S,MAT,,1 $ ESEL,R,CENT,Z,(0.0+0.0007)/2 $ BFE,ALL,HGEN,1,84.0/4.375000000000001e-07 $ ALLSEL
TIME,1.810475089 $ KBC,1 $ AUTOTS,OFF $ DELTIM,0.001 $ SOLVE
ESEL,S,MAT,,1 $ ESEL,R,CENT,Z,(0.0+0.0007)/2 $ BFE,ALL,HGEN,1,84.0/4.375000000000001e-07 $ ALLSEL
TIME,1.851140606 $ KBC,1 $ AUTOTS,OFF $ DELTIM,0.001 $ SOLVE
ESEL,S,MAT,,1 $ ESEL,R,CENT,Z,(0.0+0.0007)/2 $ BFE,ALL,HGEN,1,700.0/4.375000000000001e-07 $ ALLSEL
TIME,1.863448572 $ KBC,1 $ AUTOTS,OFF $ DELTIM,0.001 $ SOLVE
ESEL,S,MAT,,1 $ ESEL,R,CENT,Z,(0.0+0.0007)/2 $ BFE,ALL,HGEN,1,140.0/4.375000000000001e-07 $ ALLSEL
TIME,1.863524963 $ KBC,1 $ AUTOTS,OFF $ DELTIM,1.25e-05 $ SOLVE
ESEL,S,MAT,,1 $ ESEL,R,CENT,Z,(0.0+0.0007)/2 $ BFE,ALL,HGEN,1,280.0/4.375000000000001e-07 $ ALLSEL
TIME,1.863588726 $ KBC,1 $ AUTOTS,OFF $ DELTIM,1.25e-05 $ SOLVE
ESEL,S,MAT,,1 $ ESEL,R,CENT,Z,(0.0+0.0007)/2 $ BFE,ALL,HGEN,1,84.0/4.375000000000001e-07 $ ALLSEL
TIME,1.873641592 $ KBC,1 $ AUTOTS,OFF $ DELTIM,0.001 $ SOLVE
ESEL,S,MAT,,1 $ ESEL,R,CENT,Z,(0.0+0.0007)/2 $ BFE,ALL,HGEN,1,280.0/4.375000000000001e-07 $ ALLSEL
TIME,1.875726085 $ KBC,1 $ AUTOTS,OFF $ DELTIM,0.0002605616249999887 $ SOLVE
ESEL,S,MAT,,1 $ ESEL,R,CENT,Z,(0.0+0.0007)/2 $ BFE,ALL,HGEN,1,700.0/4.375000000000001e-07 $ ALLSEL
TIME,1.882481653 $ KBC,1 $ AUTOTS,OFF $ DELTIM,0.0008444459999999987 $ SOLVE
ESEL,S,MAT,,1 $ ESEL,R,CENT,Z,(0.0+0.0007)/2 $ BFE,ALL,HGEN,1,84.0/4.375000000000001e-07 $ ALLSEL
TIME,1.891739752 $ KBC,1 $ AUTOTS,OFF $ DELTIM,0.001 $ SOLVE
ESEL,S,MAT,,1 $ ESEL,R,CENT,Z,(0.0+0.0007)/2 $ BFE,ALL,HGEN,1,140.0/4.375000000000001e-07 $ ALLSEL
TIME,1.891816145 $ KBC,1 $ AUTOTS,OFF $ DELTIM,1.25e-05 $ SOLVE
ESEL,S,MAT,,1 $ ESEL,R,CENT,Z,(0.0+0.0007)/2 $ BFE,ALL,HGEN,1,700.0/4.375000000000001e-07 $ ALLSEL
TIME,1.904124111 $ KBC,1 $ AUTOTS,OFF $ DELTIM,0.001 $ SOLVE
ESEL,S,MAT,,1 $ ESEL,R,CENT,Z,(0.0+0.0007)/2 $ BFE,ALL,HGEN,1,140.0/4.375000000000001e-07 $ ALLSEL
TIME,1.904200502 $ KBC,1 $ AUTOTS,OFF $ DELTIM,1.25e-05 $ SOLVE
ESEL,S,MAT,,1 $ ESEL,R,CENT,Z,(0.0+0.0007)/2 $ BFE,ALL,HGEN,1,280.0/4.375000000000001e-07 $ ALLSEL
TIME,1.904264265 $ KBC,1 $ AUTOTS,OFF $ DELTIM,1.25e-05 $ SOLVE
ESEL,S,MAT,,1 $ ESEL,R,CENT,Z,(0.0+0.0007)/2 $ BFE,ALL,HGEN,1,84.0/4.375000000000001e-07 $ ALLSEL
TIME,1.914317131 $ KBC,1 $ AUTOTS,OFF $ DELTIM,0.001 $ SOLVE
ESEL,S,MAT,,1 $ ESEL,R,CENT,Z,(0.0+0.0007)/2 $ BFE,ALL,HGEN,1,280.0/4.375000000000001e-07 $ ALLSEL
TIME,1.916401624 $ KBC,1 $ AUTOTS,OFF $ DELTIM,0.0002605616249999887 $ SOLVE
ESEL,S,MAT,,1 $ ESEL,R,CENT,Z,(0.0+0.0007)/2 $ BFE,ALL,HGEN,1,700.0/4.375000000000001e-07 $ ALLSEL
TIME,1.923157192 $ KBC,1 $ AUTOTS,OFF $ DELTIM,0.0008444459999999987 $ SOLVE
ESEL,S,MAT,,1 $ ESEL,R,CENT,Z,(0.0+0.0007)/2 $ BFE,ALL,HGEN,1,84.0/4.375000000000001e-07 $ ALLSEL
TIME,1.932415291 $ KBC,1 $ AUTOTS,OFF $ DELTIM,0.001 $ SOLVE
ESEL,S,MAT,,1 $ ESEL,R,CENT,Z,(0.0+0.0007)/2 $ BFE,ALL,HGEN,1,140.0/4.375000000000001e-07 $ ALLSEL
TIME,1.932491684 $ KBC,1 $ AUTOTS,OFF $ DELTIM,1.25e-05 $ SOLVE
ESEL,S,MAT,,1 $ ESEL,R,CENT,Z,(0.0+0.0007)/2 $ BFE,ALL,HGEN,1,700.0/4.375000000000001e-07 $ ALLSEL
TIME,1.94479965 $ KBC,1 $ AUTOTS,OFF $ DELTIM,0.001 $ SOLVE
ESEL,S,MAT,,1 $ ESEL,R,CENT,Z,(0.0+0.0007)/2 $ BFE,ALL,HGEN,1,140.0/4.375000000000001e-07 $ ALLSEL
TIME,1.944876041 $ KBC,1 $ AUTOTS,OFF $ DELTIM,1.25e-05 $ SOLVE
ESEL,S,MAT,,1 $ ESEL,R,CENT,Z,(0.0+0.0007)/2 $ BFE,ALL,HGEN,1,280.0/4.375000000000001e-07 $ ALLSEL
TIME,1.944939804 $ KBC,1 $ AUTOTS,OFF $ DELTIM,1.25e-05 $ SOLVE
ESEL,S,MAT,,1 $ ESEL,R,CENT,Z,(0.0+0.0007)/2 $ BFE,ALL,HGEN,1,84.0/4.375000000000001e-07 $ ALLSEL
TIME,1.95499267 $ KBC,1 $ AUTOTS,OFF $ DELTIM,0.001 $ SOLVE
ESEL,S,MAT,,1 $ ESEL,R,CENT,Z,(0.0+0.0007)/2 $ BFE,ALL,HGEN,1,280.0/4.375000000000001e-07 $ ALLSEL
TIME,1.957077163 $ KBC,1 $ AUTOTS,OFF $ DELTIM,0.0002605616249999887 $ SOLVE
ESEL,S,MAT,,1 $ ESEL,R,CENT,Z,(0.0+0.0007)/2 $ BFE,ALL,HGEN,1,700.0/4.375000000000001e-07 $ ALLSEL
TIME,1.963832731 $ KBC,1 $ AUTOTS,OFF $ DELTIM,0.0008444460000000265 $ SOLVE
ESEL,S,MAT,,1 $ ESEL,R,CENT,Z,(0.0+0.0007)/2 $ BFE,ALL,HGEN,1,84.0/4.375000000000001e-07 $ ALLSEL
TIME,1.973090829 $ KBC,1 $ AUTOTS,OFF $ DELTIM,0.001 $ SOLVE
ESEL,S,MAT,,1 $ ESEL,R,CENT,Z,(0.0+0.0007)/2 $ BFE,ALL,HGEN,1,140.0/4.375000000000001e-07 $ ALLSEL
TIME,1.973167223 $ KBC,1 $ AUTOTS,OFF $ DELTIM,1.25e-05 $ SOLVE
ESEL,S,MAT,,1 $ ESEL,R,CENT,Z,(0.0+0.0007)/2 $ BFE,ALL,HGEN,1,700.0/4.375000000000001e-07 $ ALLSEL
TIME,1.985475189 $ KBC,1 $ AUTOTS,OFF $ DELTIM,0.001 $ SOLVE
ESEL,S,MAT,,1 $ ESEL,R,CENT,Z,(0.0+0.0007)/2 $ BFE,ALL,HGEN,1,140.0/4.375000000000001e-07 $ ALLSEL
TIME,1.985551579 $ KBC,1 $ AUTOTS,OFF $ DELTIM,1.25e-05 $ SOLVE
ESEL,S,MAT,,1 $ ESEL,R,CENT,Z,(0.0+0.0007)/2 $ BFE,ALL,HGEN,1,280.0/4.375000000000001e-07 $ ALLSEL
TIME,1.985604987 $ KBC,1 $ AUTOTS,OFF $ DELTIM,1.25e-05 $ SOLVE
ESEL,S,MAT,,1 $ ESEL,R,CENT,Z,(0.0+0.0007)/2 $ BFE,ALL,HGEN,1,280.0/4.375000000000001e-07 $ ALLSEL
TIME,1.985615343 $ KBC,1 $ AUTOTS,OFF $ DELTIM,1.25e-05 $ SOLVE
ESEL,S,MAT,,1 $ ESEL,R,CENT,Z,(0.0+0.0007)/2 $ BFE,ALL,HGEN,1,84.0/4.375000000000001e-07 $ ALLSEL
TIME,1.995657854 $ KBC,1 $ AUTOTS,OFF $ DELTIM,0.001 $ SOLVE
ESEL,S,MAT,,1 $ ESEL,R,CENT,Z,(0.0+0.0007)/2 $ BFE,ALL,HGEN,1,280.0/4.375000000000001e-07 $ ALLSEL
TIME,1.997742347 $ KBC,1 $ AUTOTS,OFF $ DELTIM,0.0002605616249999887 $ SOLVE
ESEL,S,MAT,,1 $ ESEL,R,CENT,Z,(0.0+0.0007)/2 $ BFE,ALL,HGEN,1,700.0/4.375000000000001e-07 $ ALLSEL
TIME,2.004497915 $ KBC,1 $ AUTOTS,OFF $ DELTIM,0.0008444459999999987 $ SOLVE
ESEL,S,MAT,,1 $ ESEL,R,CENT,Z,(0.0+0.0007)/2 $ BFE,ALL,HGEN,1,84.0/4.375000000000001e-07 $ ALLSEL
TIME,2.01375593 $ KBC,1 $ AUTOTS,OFF $ DELTIM,0.001 $ SOLVE
ESEL,S,MAT,,1 $ ESEL,R,CENT,Z,(0.0+0.0007)/2 $ BFE,ALL,HGEN,1,140.0/4.375000000000001e-07 $ ALLSEL
TIME,2.013832323 $ KBC,1 $ AUTOTS,OFF $ DELTIM,1.25e-05 $ SOLVE
ESEL,S,MAT,,1 $ ESEL,R,CENT,Z,(0.0+0.0007)/2 $ BFE,ALL,HGEN,1,84.0/4.375000000000001e-07 $ ALLSEL
TIME,2.114405727 $ KBC,1 $ AUTOTS,OFF $ DELTIM,0.001 $ SOLVE
ESEL,S,MAT,,1 $ ESEL,R,CENT,Z,(0.0+0.0007)/2 $ BFE,ALL,HGEN,1,140.0/4.375000000000001e-07 $ ALLSEL
TIME,2.114557204 $ KBC,1 $ AUTOTS,OFF $ DELTIM,1.8934625000022187e-05 $ SOLVE
ESEL,S,MAT,,1 $ ESEL,R,CENT,Z,(0.0+0.0007)/2 $ BFE,ALL,HGEN,1,280.0/4.375000000000001e-07 $ ALLSEL
TIME,2.114560625 $ KBC,1 $ AUTOTS,OFF $ DELTIM,1.25e-05 $ SOLVE
ESEL,S,MAT,,1 $ ESEL,R,CENT,Z,(0.0+0.0007)/2 $ BFE,ALL,HGEN,1,84.0/4.375000000000001e-07 $ ALLSEL
TIME,2.124610071 $ KBC,1 $ AUTOTS,OFF $ DELTIM,0.001 $ SOLVE
ESEL,S,MAT,,1 $ ESEL,R,CENT,Z,(0.0+0.0007)/2 $ BFE,ALL,HGEN,1,280.0/4.375000000000001e-07 $ ALLSEL
TIME,2.124701565 $ KBC,1 $ AUTOTS,OFF $ DELTIM,1.25e-05 $ SOLVE
ESEL,S,MAT,,1 $ ESEL,R,CENT,Z,(0.0+0.0007)/2 $ BFE,ALL,HGEN,1,700.0/4.375000000000001e-07 $ ALLSEL
TIME,2.129293444 $ KBC,1 $ AUTOTS,OFF $ DELTIM,0.0005739848749999887 $ SOLVE
ESEL,S,MAT,,1 $ ESEL,R,CENT,Z,(0.0+0.0007)/2 $ BFE,ALL,HGEN,1,84.0/4.375000000000001e-07 $ ALLSEL
TIME,2.138245171 $ KBC,1 $ AUTOTS,OFF $ DELTIM,0.001 $ SOLVE
ESEL,S,MAT,,1 $ ESEL,R,CENT,Z,(0.0+0.0007)/2 $ BFE,ALL,HGEN,1,280.0/4.375000000000001e-07 $ ALLSEL
TIME,2.138367241 $ KBC,1 $ AUTOTS,OFF $ DELTIM,1.5258750000024524e-05 $ SOLVE
ESEL,S,MAT,,1 $ ESEL,R,CENT,Z,(0.0+0.0007)/2 $ BFE,ALL,HGEN,1,140.0/4.375000000000001e-07 $ ALLSEL
TIME,2.138518708 $ KBC,1 $ AUTOTS,OFF $ DELTIM,1.8933374999974273e-05 $ SOLVE
ESEL,S,MAT,,1 $ ESEL,R,CENT,Z,(0.0+0.0007)/2 $ BFE,ALL,HGEN,1,700.0/4.375000000000001e-07 $ ALLSEL
TIME,2.16313464 $ KBC,1 $ AUTOTS,OFF $ DELTIM,0.001 $ SOLVE
ESEL,S,MAT,,1 $ ESEL,R,CENT,Z,(0.0+0.0007)/2 $ BFE,ALL,HGEN,1,84.0/4.375000000000001e-07 $ ALLSEL
TIME,2.166848795 $ KBC,1 $ AUTOTS,OFF $ DELTIM,0.00046426937499999266 $ SOLVE
ESEL,S,MAT,,1 $ ESEL,R,CENT,Z,(0.0+0.0007)/2 $ BFE,ALL,HGEN,1,140.0/4.375000000000001e-07 $ ALLSEL
TIME,2.167000272 $ KBC,1 $ AUTOTS,OFF $ DELTIM,1.8934625000022187e-05 $ SOLVE
ESEL,S,MAT,,1 $ ESEL,R,CENT,Z,(0.0+0.0007)/2 $ BFE,ALL,HGEN,1,280.0/4.375000000000001e-07 $ ALLSEL
TIME,2.167003693 $ KBC,1 $ AUTOTS,OFF $ DELTIM,1.25e-05 $ SOLVE
ESEL,S,MAT,,1 $ ESEL,R,CENT,Z,(0.0+0.0007)/2 $ BFE,ALL,HGEN,1,84.0/4.375000000000001e-07 $ ALLSEL
TIME,2.177053138 $ KBC,1 $ AUTOTS,OFF $ DELTIM,0.001 $ SOLVE
ESEL,S,MAT,,1 $ ESEL,R,CENT,Z,(0.0+0.0007)/2 $ BFE,ALL,HGEN,1,280.0/4.375000000000001e-07 $ ALLSEL
TIME,2.177144633 $ KBC,1 $ AUTOTS,OFF $ DELTIM,1.25e-05 $ SOLVE
ESEL,S,MAT,,1 $ ESEL,R,CENT,Z,(0.0+0.0007)/2 $ BFE,ALL,HGEN,1,700.0/4.375000000000001e-07 $ ALLSEL
TIME,2.181736511 $ KBC,1 $ AUTOTS,OFF $ DELTIM,0.0005739847499999784 $ SOLVE
ESEL,S,MAT,,1 $ ESEL,R,CENT,Z,(0.0+0.0007)/2 $ BFE,ALL,HGEN,1,84.0/4.375000000000001e-07 $ ALLSEL
TIME,2.1905815 $ KBC,1 $ AUTOTS,OFF $ DELTIM,0.001 $ SOLVE
ESEL,S,MAT,,1 $ ESEL,R,CENT,Z,(0.0+0.0007)/2 $ BFE,ALL,HGEN,1,280.0/4.375000000000001e-07 $ ALLSEL
TIME,2.19070357 $ KBC,1 $ AUTOTS,OFF $ DELTIM,1.5258750000024524e-05 $ SOLVE
ESEL,S,MAT,,1 $ ESEL,R,CENT,Z,(0.0+0.0007)/2 $ BFE,ALL,HGEN,1,140.0/4.375000000000001e-07 $ ALLSEL
TIME,2.190855037 $ KBC,1 $ AUTOTS,OFF $ DELTIM,1.8933374999974273e-05 $ SOLVE
ESEL,S,MAT,,1 $ ESEL,R,CENT,Z,(0.0+0.0007)/2 $ BFE,ALL,HGEN,1,700.0/4.375000000000001e-07 $ ALLSEL
TIME,2.215470969 $ KBC,1 $ AUTOTS,OFF $ DELTIM,0.001 $ SOLVE
ESEL,S,MAT,,1 $ ESEL,R,CENT,Z,(0.0+0.0007)/2 $ BFE,ALL,HGEN,1,84.0/4.375000000000001e-07 $ ALLSEL
TIME,2.260466931 $ KBC,1 $ AUTOTS,OFF $ DELTIM,0.001 $ SOLVE
ESEL,S,MAT,,1 $ ESEL,R,CENT,Z,(0.0+0.0007)/2 $ BFE,ALL,HGEN,1,140.0/4.375000000000001e-07 $ ALLSEL
TIME,2.260618408 $ KBC,1 $ AUTOTS,OFF $ DELTIM,1.8934625000022187e-05 $ SOLVE
ESEL,S,MAT,,1 $ ESEL,R,CENT,Z,(0.0+0.0007)/2 $ BFE,ALL,HGEN,1,280.0/4.375000000000001e-07 $ ALLSEL
TIME,2.260621829 $ KBC,1 $ AUTOTS,OFF $ DELTIM,1.25e-05 $ SOLVE
ESEL,S,MAT,,1 $ ESEL,R,CENT,Z,(0.0+0.0007)/2 $ BFE,ALL,HGEN,1,84.0/4.375000000000001e-07 $ ALLSEL
TIME,2.270671274 $ KBC,1 $ AUTOTS,OFF $ DELTIM,0.001 $ SOLVE
ESEL,S,MAT,,1 $ ESEL,R,CENT,Z,(0.0+0.0007)/2 $ BFE,ALL,HGEN,1,280.0/4.375000000000001e-07 $ ALLSEL
TIME,2.270762769 $ KBC,1 $ AUTOTS,OFF $ DELTIM,1.25e-05 $ SOLVE
ESEL,S,MAT,,1 $ ESEL,R,CENT,Z,(0.0+0.0007)/2 $ BFE,ALL,HGEN,1,700.0/4.375000000000001e-07 $ ALLSEL
TIME,2.275354647 $ KBC,1 $ AUTOTS,OFF $ DELTIM,0.0005739847499999784 $ SOLVE
ESEL,S,MAT,,1 $ ESEL,R,CENT,Z,(0.0+0.0007)/2 $ BFE,ALL,HGEN,1,84.0/4.375000000000001e-07 $ ALLSEL
TIME,2.284249308 $ KBC,1 $ AUTOTS,OFF $ DELTIM,0.001 $ SOLVE
ESEL,S,MAT,,1 $ ESEL,R,CENT,Z,(0.0+0.0007)/2 $ BFE,ALL,HGEN,1,280.0/4.375000000000001e-07 $ ALLSEL
TIME,2.284371379 $ KBC,1 $ AUTOTS,OFF $ DELTIM,1.5258874999979355e-05 $ SOLVE
ESEL,S,MAT,,1 $ ESEL,R,CENT,Z,(0.0+0.0007)/2 $ BFE,ALL,HGEN,1,140.0/4.375000000000001e-07 $ ALLSEL
TIME,2.284522846 $ KBC,1 $ AUTOTS,OFF $ DELTIM,1.8933375000029784e-05 $ SOLVE
ESEL,S,MAT,,1 $ ESEL,R,CENT,Z,(0.0+0.0007)/2 $ BFE,ALL,HGEN,1,700.0/4.375000000000001e-07 $ ALLSEL
TIME,2.309138778 $ KBC,1 $ AUTOTS,OFF $ DELTIM,0.001 $ SOLVE
ESEL,S,MAT,,1 $ ESEL,R,CENT,Z,(0.0+0.0007)/2 $ BFE,ALL,HGEN,1,84.0/4.375000000000001e-07 $ ALLSEL
TIME,2.316814839 $ KBC,1 $ AUTOTS,OFF $ DELTIM,0.0009595076250000223 $ SOLVE
ESEL,S,MAT,,1 $ ESEL,R,CENT,Z,(0.0+0.0007)/2 $ BFE,ALL,HGEN,1,140.0/4.375000000000001e-07 $ ALLSEL
TIME,2.316966316 $ KBC,1 $ AUTOTS,OFF $ DELTIM,1.8934624999966676e-05 $ SOLVE
ESEL,S,MAT,,1 $ ESEL,R,CENT,Z,(0.0+0.0007)/2 $ BFE,ALL,HGEN,1,280.0/4.375000000000001e-07 $ ALLSEL
TIME,2.316969737 $ KBC,1 $ AUTOTS,OFF $ DELTIM,1.25e-05 $ SOLVE
ESEL,S,MAT,,1 $ ESEL,R,CENT,Z,(0.0+0.0007)/2 $ BFE,ALL,HGEN,1,84.0/4.375000000000001e-07 $ ALLSEL
TIME,2.327019182 $ KBC,1 $ AUTOTS,OFF $ DELTIM,0.001 $ SOLVE
ESEL,S,MAT,,1 $ ESEL,R,CENT,Z,(0.0+0.0007)/2 $ BFE,ALL,HGEN,1,280.0/4.375000000000001e-07 $ ALLSEL
TIME,2.327110676 $ KBC,1 $ AUTOTS,OFF $ DELTIM,1.25e-05 $ SOLVE
ESEL,S,MAT,,1 $ ESEL,R,CENT,Z,(0.0+0.0007)/2 $ BFE,ALL,HGEN,1,700.0/4.375000000000001e-07 $ ALLSEL
TIME,2.331702555 $ KBC,1 $ AUTOTS,OFF $ DELTIM,0.0005739848749999887 $ SOLVE
ESEL,S,MAT,,1 $ ESEL,R,CENT,Z,(0.0+0.0007)/2 $ BFE,ALL,HGEN,1,84.0/4.375000000000001e-07 $ ALLSEL
TIME,2.340646805 $ KBC,1 $ AUTOTS,OFF $ DELTIM,0.001 $ SOLVE
ESEL,S,MAT,,1 $ ESEL,R,CENT,Z,(0.0+0.0007)/2 $ BFE,ALL,HGEN,1,280.0/4.375000000000001e-07 $ ALLSEL
TIME,2.340768876 $ KBC,1 $ AUTOTS,OFF $ DELTIM,1.5258874999979355e-05 $ SOLVE
ESEL,S,MAT,,1 $ ESEL,R,CENT,Z,(0.0+0.0007)/2 $ BFE,ALL,HGEN,1,140.0/4.375000000000001e-07 $ ALLSEL
TIME,2.340920343 $ KBC,1 $ AUTOTS,OFF $ DELTIM,1.8933375000029784e-05 $ SOLVE
ESEL,S,MAT,,1 $ ESEL,R,CENT,Z,(0.0+0.0007)/2 $ BFE,ALL,HGEN,1,700.0/4.375000000000001e-07 $ ALLSEL
TIME,2.365536275 $ KBC,1 $ AUTOTS,OFF $ DELTIM,0.001 $ SOLVE
ESEL,S,MAT,,1 $ ESEL,R,CENT,Z,(0.0+0.0007)/2 $ BFE,ALL,HGEN,1,84.0/4.375000000000001e-07 $ ALLSEL
TIME,2.413966786 $ KBC,1 $ AUTOTS,OFF $ DELTIM,0.001 $ SOLVE
ESEL,S,MAT,,1 $ ESEL,R,CENT,Z,(0.0+0.0007)/2 $ BFE,ALL,HGEN,1,84.0/4.375000000000001e-07 $ ALLSEL
TIME,2.454632303 $ KBC,1 $ AUTOTS,OFF $ DELTIM,0.001 $ SOLVE
ESEL,S,MAT,,1 $ ESEL,R,CENT,Z,(0.0+0.0007)/2 $ BFE,ALL,HGEN,1,700.0/4.375000000000001e-07 $ ALLSEL
TIME,2.466940269 $ KBC,1 $ AUTOTS,OFF $ DELTIM,0.001 $ SOLVE
ESEL,S,MAT,,1 $ ESEL,R,CENT,Z,(0.0+0.0007)/2 $ BFE,ALL,HGEN,1,140.0/4.375000000000001e-07 $ ALLSEL
TIME,2.467016659 $ KBC,1 $ AUTOTS,OFF $ DELTIM,1.25e-05 $ SOLVE
ESEL,S,MAT,,1 $ ESEL,R,CENT,Z,(0.0+0.0007)/2 $ BFE,ALL,HGEN,1,280.0/4.375000000000001e-07 $ ALLSEL
TIME,2.467080423 $ KBC,1 $ AUTOTS,OFF $ DELTIM,1.25e-05 $ SOLVE
ESEL,S,MAT,,1 $ ESEL,R,CENT,Z,(0.0+0.0007)/2 $ BFE,ALL,HGEN,1,84.0/4.375000000000001e-07 $ ALLSEL
TIME,2.477133289 $ KBC,1 $ AUTOTS,OFF $ DELTIM,0.001 $ SOLVE
ESEL,S,MAT,,1 $ ESEL,R,CENT,Z,(0.0+0.0007)/2 $ BFE,ALL,HGEN,1,280.0/4.375000000000001e-07 $ ALLSEL
TIME,2.479217782 $ KBC,1 $ AUTOTS,OFF $ DELTIM,0.0002605616249999887 $ SOLVE
ESEL,S,MAT,,1 $ ESEL,R,CENT,Z,(0.0+0.0007)/2 $ BFE,ALL,HGEN,1,700.0/4.375000000000001e-07 $ ALLSEL
TIME,2.48597335 $ KBC,1 $ AUTOTS,OFF $ DELTIM,0.0008444459999999987 $ SOLVE
ESEL,S,MAT,,1 $ ESEL,R,CENT,Z,(0.0+0.0007)/2 $ BFE,ALL,HGEN,1,84.0/4.375000000000001e-07 $ ALLSEL
TIME,2.495231448 $ KBC,1 $ AUTOTS,OFF $ DELTIM,0.001 $ SOLVE
ESEL,S,MAT,,1 $ ESEL,R,CENT,Z,(0.0+0.0007)/2 $ BFE,ALL,HGEN,1,140.0/4.375000000000001e-07 $ ALLSEL
TIME,2.495307842 $ KBC,1 $ AUTOTS,OFF $ DELTIM,1.25e-05 $ SOLVE
ESEL,S,MAT,,1 $ ESEL,R,CENT,Z,(0.0+0.0007)/2 $ BFE,ALL,HGEN,1,700.0/4.375000000000001e-07 $ ALLSEL
TIME,2.507615807 $ KBC,1 $ AUTOTS,OFF $ DELTIM,0.001 $ SOLVE
ESEL,S,MAT,,1 $ ESEL,R,CENT,Z,(0.0+0.0007)/2 $ BFE,ALL,HGEN,1,140.0/4.375000000000001e-07 $ ALLSEL
TIME,2.507692198 $ KBC,1 $ AUTOTS,OFF $ DELTIM,1.25e-05 $ SOLVE
ESEL,S,MAT,,1 $ ESEL,R,CENT,Z,(0.0+0.0007)/2 $ BFE,ALL,HGEN,1,280.0/4.375000000000001e-07 $ ALLSEL
TIME,2.507755961 $ KBC,1 $ AUTOTS,OFF $ DELTIM,1.25e-05 $ SOLVE
ESEL,S,MAT,,1 $ ESEL,R,CENT,Z,(0.0+0.0007)/2 $ BFE,ALL,HGEN,1,84.0/4.375000000000001e-07 $ ALLSEL
TIME,2.517808828 $ KBC,1 $ AUTOTS,OFF $ DELTIM,0.001 $ SOLVE
ESEL,S,MAT,,1 $ ESEL,R,CENT,Z,(0.0+0.0007)/2 $ BFE,ALL,HGEN,1,280.0/4.375000000000001e-07 $ ALLSEL
TIME,2.51989332 $ KBC,1 $ AUTOTS,OFF $ DELTIM,0.00026056149999997835 $ SOLVE
ESEL,S,MAT,,1 $ ESEL,R,CENT,Z,(0.0+0.0007)/2 $ BFE,ALL,HGEN,1,700.0/4.375000000000001e-07 $ ALLSEL
TIME,2.526648889 $ KBC,1 $ AUTOTS,OFF $ DELTIM,0.000844446125000009 $ SOLVE
ESEL,S,MAT,,1 $ ESEL,R,CENT,Z,(0.0+0.0007)/2 $ BFE,ALL,HGEN,1,84.0/4.375000000000001e-07 $ ALLSEL
TIME,2.535906987 $ KBC,1 $ AUTOTS,OFF $ DELTIM,0.001 $ SOLVE
ESEL,S,MAT,,1 $ ESEL,R,CENT,Z,(0.0+0.0007)/2 $ BFE,ALL,HGEN,1,140.0/4.375000000000001e-07 $ ALLSEL
TIME,2.53598338 $ KBC,1 $ AUTOTS,OFF $ DELTIM,1.25e-05 $ SOLVE
ESEL,S,MAT,,1 $ ESEL,R,CENT,Z,(0.0+0.0007)/2 $ BFE,ALL,HGEN,1,700.0/4.375000000000001e-07 $ ALLSEL
TIME,2.548291346 $ KBC,1 $ AUTOTS,OFF $ DELTIM,0.001 $ SOLVE
ESEL,S,MAT,,1 $ ESEL,R,CENT,Z,(0.0+0.0007)/2 $ BFE,ALL,HGEN,1,140.0/4.375000000000001e-07 $ ALLSEL
TIME,2.548367737 $ KBC,1 $ AUTOTS,OFF $ DELTIM,1.25e-05 $ SOLVE
ESEL,S,MAT,,1 $ ESEL,R,CENT,Z,(0.0+0.0007)/2 $ BFE,ALL,HGEN,1,280.0/4.375000000000001e-07 $ ALLSEL
TIME,2.5484315 $ KBC,1 $ AUTOTS,OFF $ DELTIM,1.25e-05 $ SOLVE
ESEL,S,MAT,,1 $ ESEL,R,CENT,Z,(0.0+0.0007)/2 $ BFE,ALL,HGEN,1,84.0/4.375000000000001e-07 $ ALLSEL
TIME,2.558484366 $ KBC,1 $ AUTOTS,OFF $ DELTIM,0.001 $ SOLVE
ESEL,S,MAT,,1 $ ESEL,R,CENT,Z,(0.0+0.0007)/2 $ BFE,ALL,HGEN,1,280.0/4.375000000000001e-07 $ ALLSEL
TIME,2.560568859 $ KBC,1 $ AUTOTS,OFF $ DELTIM,0.0002605616249999887 $ SOLVE
ESEL,S,MAT,,1 $ ESEL,R,CENT,Z,(0.0+0.0007)/2 $ BFE,ALL,HGEN,1,700.0/4.375000000000001e-07 $ ALLSEL
TIME,2.567324427 $ KBC,1 $ AUTOTS,OFF $ DELTIM,0.0008444459999999987 $ SOLVE
ESEL,S,MAT,,1 $ ESEL,R,CENT,Z,(0.0+0.0007)/2 $ BFE,ALL,HGEN,1,84.0/4.375000000000001e-07 $ ALLSEL
TIME,2.576582526 $ KBC,1 $ AUTOTS,OFF $ DELTIM,0.001 $ SOLVE
ESEL,S,MAT,,1 $ ESEL,R,CENT,Z,(0.0+0.0007)/2 $ BFE,ALL,HGEN,1,140.0/4.375000000000001e-07 $ ALLSEL
TIME,2.576658919 $ KBC,1 $ AUTOTS,OFF $ DELTIM,1.25e-05 $ SOLVE
ESEL,S,MAT,,1 $ ESEL,R,CENT,Z,(0.0+0.0007)/2 $ BFE,ALL,HGEN,1,700.0/4.375000000000001e-07 $ ALLSEL
TIME,2.588966885 $ KBC,1 $ AUTOTS,OFF $ DELTIM,0.001 $ SOLVE
ESEL,S,MAT,,1 $ ESEL,R,CENT,Z,(0.0+0.0007)/2 $ BFE,ALL,HGEN,1,140.0/4.375000000000001e-07 $ ALLSEL
TIME,2.589043276 $ KBC,1 $ AUTOTS,OFF $ DELTIM,1.25e-05 $ SOLVE
ESEL,S,MAT,,1 $ ESEL,R,CENT,Z,(0.0+0.0007)/2 $ BFE,ALL,HGEN,1,280.0/4.375000000000001e-07 $ ALLSEL
TIME,2.589096684 $ KBC,1 $ AUTOTS,OFF $ DELTIM,1.25e-05 $ SOLVE
ESEL,S,MAT,,1 $ ESEL,R,CENT,Z,(0.0+0.0007)/2 $ BFE,ALL,HGEN,1,280.0/4.375000000000001e-07 $ ALLSEL
TIME,2.589107039 $ KBC,1 $ AUTOTS,OFF $ DELTIM,1.25e-05 $ SOLVE
ESEL,S,MAT,,1 $ ESEL,R,CENT,Z,(0.0+0.0007)/2 $ BFE,ALL,HGEN,1,84.0/4.375000000000001e-07 $ ALLSEL
TIME,2.59914955 $ KBC,1 $ AUTOTS,OFF $ DELTIM,0.001 $ SOLVE
ESEL,S,MAT,,1 $ ESEL,R,CENT,Z,(0.0+0.0007)/2 $ BFE,ALL,HGEN,1,280.0/4.375000000000001e-07 $ ALLSEL
TIME,2.601234043 $ KBC,1 $ AUTOTS,OFF $ DELTIM,0.0002605616249999887 $ SOLVE
ESEL,S,MAT,,1 $ ESEL,R,CENT,Z,(0.0+0.0007)/2 $ BFE,ALL,HGEN,1,700.0/4.375000000000001e-07 $ ALLSEL
TIME,2.607989611 $ KBC,1 $ AUTOTS,OFF $ DELTIM,0.0008444459999999987 $ SOLVE
ESEL,S,MAT,,1 $ ESEL,R,CENT,Z,(0.0+0.0007)/2 $ BFE,ALL,HGEN,1,84.0/4.375000000000001e-07 $ ALLSEL
TIME,2.617247626 $ KBC,1 $ AUTOTS,OFF $ DELTIM,0.001 $ SOLVE
ESEL,S,MAT,,1 $ ESEL,R,CENT,Z,(0.0+0.0007)/2 $ BFE,ALL,HGEN,1,140.0/4.375000000000001e-07 $ ALLSEL
TIME,2.617324019 $ KBC,1 $ AUTOTS,OFF $ DELTIM,1.25e-05 $ SOLVE
ESEL,S,MAT,,1 $ ESEL,R,CENT,Z,(0.0+0.0007)/2 $ BFE,ALL,HGEN,1,84.0/4.375000000000001e-07 $ ALLSEL
TIME,2.717897424 $ KBC,1 $ AUTOTS,OFF $ DELTIM,0.001 $ SOLVE
ESEL,S,MAT,,1 $ ESEL,R,CENT,Z,(0.0+0.0007)/2 $ BFE,ALL,HGEN,1,140.0/4.375000000000001e-07 $ ALLSEL
TIME,2.718048901 $ KBC,1 $ AUTOTS,OFF $ DELTIM,1.8934625000022187e-05 $ SOLVE
ESEL,S,MAT,,1 $ ESEL,R,CENT,Z,(0.0+0.0007)/2 $ BFE,ALL,HGEN,1,280.0/4.375000000000001e-07 $ ALLSEL
TIME,2.718052322 $ KBC,1 $ AUTOTS,OFF $ DELTIM,1.25e-05 $ SOLVE
ESEL,S,MAT,,1 $ ESEL,R,CENT,Z,(0.0+0.0007)/2 $ BFE,ALL,HGEN,1,84.0/4.375000000000001e-07 $ ALLSEL
TIME,2.728101767 $ KBC,1 $ AUTOTS,OFF $ DELTIM,0.001 $ SOLVE
ESEL,S,MAT,,1 $ ESEL,R,CENT,Z,(0.0+0.0007)/2 $ BFE,ALL,HGEN,1,280.0/4.375000000000001e-07 $ ALLSEL
TIME,2.728193262 $ KBC,1 $ AUTOTS,OFF $ DELTIM,1.25e-05 $ SOLVE
ESEL,S,MAT,,1 $ ESEL,R,CENT,Z,(0.0+0.0007)/2 $ BFE,ALL,HGEN,1,700.0/4.375000000000001e-07 $ ALLSEL
TIME,2.73278514 $ KBC,1 $ AUTOTS,OFF $ DELTIM,0.0005739847499999784 $ SOLVE
ESEL,S,MAT,,1 $ ESEL,R,CENT,Z,(0.0+0.0007)/2 $ BFE,ALL,HGEN,1,84.0/4.375000000000001e-07 $ ALLSEL
TIME,2.741736867 $ KBC,1 $ AUTOTS,OFF $ DELTIM,0.001 $ SOLVE
ESEL,S,MAT,,1 $ ESEL,R,CENT,Z,(0.0+0.0007)/2 $ BFE,ALL,HGEN,1,280.0/4.375000000000001e-07 $ ALLSEL
TIME,2.741858938 $ KBC,1 $ AUTOTS,OFF $ DELTIM,1.5258874999979355e-05 $ SOLVE
ESEL,S,MAT,,1 $ ESEL,R,CENT,Z,(0.0+0.0007)/2 $ BFE,ALL,HGEN,1,140.0/4.375000000000001e-07 $ ALLSEL
TIME,2.742010405 $ KBC,1 $ AUTOTS,OFF $ DELTIM,1.8933374999974273e-05 $ SOLVE
ESEL,S,MAT,,1 $ ESEL,R,CENT,Z,(0.0+0.0007)/2 $ BFE,ALL,HGEN,1,700.0/4.375000000000001e-07 $ ALLSEL
TIME,2.766626337 $ KBC,1 $ AUTOTS,OFF $ DELTIM,0.001 $ SOLVE
ESEL,S,MAT,,1 $ ESEL,R,CENT,Z,(0.0+0.0007)/2 $ BFE,ALL,HGEN,1,84.0/4.375000000000001e-07 $ ALLSEL
TIME,2.770340491 $ KBC,1 $ AUTOTS,OFF $ DELTIM,0.0004642692499999823 $ SOLVE
ESEL,S,MAT,,1 $ ESEL,R,CENT,Z,(0.0+0.0007)/2 $ BFE,ALL,HGEN,1,140.0/4.375000000000001e-07 $ ALLSEL
TIME,2.770491969 $ KBC,1 $ AUTOTS,OFF $ DELTIM,1.893475000003253e-05 $ SOLVE
ESEL,S,MAT,,1 $ ESEL,R,CENT,Z,(0.0+0.0007)/2 $ BFE,ALL,HGEN,1,280.0/4.375000000000001e-07 $ ALLSEL
TIME,2.770495389 $ KBC,1 $ AUTOTS,OFF $ DELTIM,1.25e-05 $ SOLVE
ESEL,S,MAT,,1 $ ESEL,R,CENT,Z,(0.0+0.0007)/2 $ BFE,ALL,HGEN,1,84.0/4.375000000000001e-07 $ ALLSEL
TIME,2.780544835 $ KBC,1 $ AUTOTS,OFF $ DELTIM,0.001 $ SOLVE
ESEL,S,MAT,,1 $ ESEL,R,CENT,Z,(0.0+0.0007)/2 $ BFE,ALL,HGEN,1,280.0/4.375000000000001e-07 $ ALLSEL
TIME,2.780636329 $ KBC,1 $ AUTOTS,OFF $ DELTIM,1.25e-05 $ SOLVE
ESEL,S,MAT,,1 $ ESEL,R,CENT,Z,(0.0+0.0007)/2 $ BFE,ALL,HGEN,1,700.0/4.375000000000001e-07 $ ALLSEL
TIME,2.785228208 $ KBC,1 $ AUTOTS,OFF $ DELTIM,0.0005739848749999887 $ SOLVE
ESEL,S,MAT,,1 $ ESEL,R,CENT,Z,(0.0+0.0007)/2 $ BFE,ALL,HGEN,1,84.0/4.375000000000001e-07 $ ALLSEL
TIME,2.794073196 $ KBC,1 $ AUTOTS,OFF $ DELTIM,0.001 $ SOLVE
ESEL,S,MAT,,1 $ ESEL,R,CENT,Z,(0.0+0.0007)/2 $ BFE,ALL,HGEN,1,280.0/4.375000000000001e-07 $ ALLSEL
TIME,2.794195266 $ KBC,1 $ AUTOTS,OFF $ DELTIM,1.5258750000024524e-05 $ SOLVE
ESEL,S,MAT,,1 $ ESEL,R,CENT,Z,(0.0+0.0007)/2 $ BFE,ALL,HGEN,1,140.0/4.375000000000001e-07 $ ALLSEL
TIME,2.794346734 $ KBC,1 $ AUTOTS,OFF $ DELTIM,1.8933499999984615e-05 $ SOLVE
ESEL,S,MAT,,1 $ ESEL,R,CENT,Z,(0.0+0.0007)/2 $ BFE,ALL,HGEN,1,700.0/4.375000000000001e-07 $ ALLSEL
TIME,2.818962666 $ KBC,1 $ AUTOTS,OFF $ DELTIM,0.001 $ SOLVE
ESEL,S,MAT,,1 $ ESEL,R,CENT,Z,(0.0+0.0007)/2 $ BFE,ALL,HGEN,1,84.0/4.375000000000001e-07 $ ALLSEL
TIME,2.863958627 $ KBC,1 $ AUTOTS,OFF $ DELTIM,0.001 $ SOLVE
ESEL,S,MAT,,1 $ ESEL,R,CENT,Z,(0.0+0.0007)/2 $ BFE,ALL,HGEN,1,140.0/4.375000000000001e-07 $ ALLSEL
TIME,2.864110104 $ KBC,1 $ AUTOTS,OFF $ DELTIM,1.8934624999966676e-05 $ SOLVE
ESEL,S,MAT,,1 $ ESEL,R,CENT,Z,(0.0+0.0007)/2 $ BFE,ALL,HGEN,1,280.0/4.375000000000001e-07 $ ALLSEL
TIME,2.864113525 $ KBC,1 $ AUTOTS,OFF $ DELTIM,1.25e-05 $ SOLVE
ESEL,S,MAT,,1 $ ESEL,R,CENT,Z,(0.0+0.0007)/2 $ BFE,ALL,HGEN,1,84.0/4.375000000000001e-07 $ ALLSEL
TIME,2.874162971 $ KBC,1 $ AUTOTS,OFF $ DELTIM,0.001 $ SOLVE
ESEL,S,MAT,,1 $ ESEL,R,CENT,Z,(0.0+0.0007)/2 $ BFE,ALL,HGEN,1,280.0/4.375000000000001e-07 $ ALLSEL
TIME,2.874254465 $ KBC,1 $ AUTOTS,OFF $ DELTIM,1.25e-05 $ SOLVE
ESEL,S,MAT,,1 $ ESEL,R,CENT,Z,(0.0+0.0007)/2 $ BFE,ALL,HGEN,1,700.0/4.375000000000001e-07 $ ALLSEL
TIME,2.878846343 $ KBC,1 $ AUTOTS,OFF $ DELTIM,0.0005739847500000339 $ SOLVE
ESEL,S,MAT,,1 $ ESEL,R,CENT,Z,(0.0+0.0007)/2 $ BFE,ALL,HGEN,1,84.0/4.375000000000001e-07 $ ALLSEL
TIME,2.887741005 $ KBC,1 $ AUTOTS,OFF $ DELTIM,0.001 $ SOLVE
ESEL,S,MAT,,1 $ ESEL,R,CENT,Z,(0.0+0.0007)/2 $ BFE,ALL,HGEN,1,280.0/4.375000000000001e-07 $ ALLSEL
TIME,2.887863075 $ KBC,1 $ AUTOTS,OFF $ DELTIM,1.5258749999969012e-05 $ SOLVE
ESEL,S,MAT,,1 $ ESEL,R,CENT,Z,(0.0+0.0007)/2 $ BFE,ALL,HGEN,1,140.0/4.375000000000001e-07 $ ALLSEL
TIME,2.888014542 $ KBC,1 $ AUTOTS,OFF $ DELTIM,1.8933375000029784e-05 $ SOLVE
ESEL,S,MAT,,1 $ ESEL,R,CENT,Z,(0.0+0.0007)/2 $ BFE,ALL,HGEN,1,700.0/4.375000000000001e-07 $ ALLSEL
TIME,2.912630474 $ KBC,1 $ AUTOTS,OFF $ DELTIM,0.001 $ SOLVE
ESEL,S,MAT,,1 $ ESEL,R,CENT,Z,(0.0+0.0007)/2 $ BFE,ALL,HGEN,1,84.0/4.375000000000001e-07 $ ALLSEL
TIME,2.920306535 $ KBC,1 $ AUTOTS,OFF $ DELTIM,0.0009595076249999668 $ SOLVE
ESEL,S,MAT,,1 $ ESEL,R,CENT,Z,(0.0+0.0007)/2 $ BFE,ALL,HGEN,1,140.0/4.375000000000001e-07 $ ALLSEL
TIME,2.920458012 $ KBC,1 $ AUTOTS,OFF $ DELTIM,1.8934625000022187e-05 $ SOLVE
ESEL,S,MAT,,1 $ ESEL,R,CENT,Z,(0.0+0.0007)/2 $ BFE,ALL,HGEN,1,280.0/4.375000000000001e-07 $ ALLSEL
TIME,2.920461433 $ KBC,1 $ AUTOTS,OFF $ DELTIM,1.25e-05 $ SOLVE
ESEL,S,MAT,,1 $ ESEL,R,CENT,Z,(0.0+0.0007)/2 $ BFE,ALL,HGEN,1,84.0/4.375000000000001e-07 $ ALLSEL
TIME,2.930510878 $ KBC,1 $ AUTOTS,OFF $ DELTIM,0.001 $ SOLVE
ESEL,S,MAT,,1 $ ESEL,R,CENT,Z,(0.0+0.0007)/2 $ BFE,ALL,HGEN,1,280.0/4.375000000000001e-07 $ ALLSEL
TIME,2.930602373 $ KBC,1 $ AUTOTS,OFF $ DELTIM,1.25e-05 $ SOLVE
ESEL,S,MAT,,1 $ ESEL,R,CENT,Z,(0.0+0.0007)/2 $ BFE,ALL,HGEN,1,700.0/4.375000000000001e-07 $ ALLSEL
TIME,2.935194251 $ KBC,1 $ AUTOTS,OFF $ DELTIM,0.0005739847499999784 $ SOLVE
ESEL,S,MAT,,1 $ ESEL,R,CENT,Z,(0.0+0.0007)/2 $ BFE,ALL,HGEN,1,84.0/4.375000000000001e-07 $ ALLSEL
TIME,2.944138502 $ KBC,1 $ AUTOTS,OFF $ DELTIM,0.001 $ SOLVE
ESEL,S,MAT,,1 $ ESEL,R,CENT,Z,(0.0+0.0007)/2 $ BFE,ALL,HGEN,1,280.0/4.375000000000001e-07 $ ALLSEL
TIME,2.944260572 $ KBC,1 $ AUTOTS,OFF $ DELTIM,1.5258750000024524e-05 $ SOLVE
ESEL,S,MAT,,1 $ ESEL,R,CENT,Z,(0.0+0.0007)/2 $ BFE,ALL,HGEN,1,140.0/4.375000000000001e-07 $ ALLSEL
TIME,2.944412039 $ KBC,1 $ AUTOTS,OFF $ DELTIM,1.8933374999974273e-05 $ SOLVE
ESEL,S,MAT,,1 $ ESEL,R,CENT,Z,(0.0+0.0007)/2 $ BFE,ALL,HGEN,1,700.0/4.375000000000001e-07 $ ALLSEL
TIME,2.969027971 $ KBC,1 $ AUTOTS,OFF $ DELTIM,0.001 $ SOLVE
ESEL,S,MAT,,1 $ ESEL,R,CENT,Z,(0.0+0.0007)/2 $ BFE,ALL,HGEN,1,84.0/4.375000000000001e-07 $ ALLSEL
TIME,3.017458482 $ KBC,1 $ AUTOTS,OFF $ DELTIM,0.001 $ SOLVE
ESEL,S,MAT,,1 $ ESEL,R,CENT,Z,(0.0+0.0007)/2 $ BFE,ALL,HGEN,1,84.0/4.375000000000001e-07 $ ALLSEL
TIME,3.058123999 $ KBC,1 $ AUTOTS,OFF $ DELTIM,0.001 $ SOLVE
ESEL,S,MAT,,1 $ ESEL,R,CENT,Z,(0.0+0.0007)/2 $ BFE,ALL,HGEN,1,700.0/4.375000000000001e-07 $ ALLSEL
TIME,3.070431965 $ KBC,1 $ AUTOTS,OFF $ DELTIM,0.001 $ SOLVE
ESEL,S,MAT,,1 $ ESEL,R,CENT,Z,(0.0+0.0007)/2 $ BFE,ALL,HGEN,1,140.0/4.375000000000001e-07 $ ALLSEL
TIME,3.070508356 $ KBC,1 $ AUTOTS,OFF $ DELTIM,1.25e-05 $ SOLVE
ESEL,S,MAT,,1 $ ESEL,R,CENT,Z,(0.0+0.0007)/2 $ BFE,ALL,HGEN,1,280.0/4.375000000000001e-07 $ ALLSEL
TIME,3.070572119 $ KBC,1 $ AUTOTS,OFF $ DELTIM,1.25e-05 $ SOLVE
ESEL,S,MAT,,1 $ ESEL,R,CENT,Z,(0.0+0.0007)/2 $ BFE,ALL,HGEN,1,84.0/4.375000000000001e-07 $ ALLSEL
TIME,3.080624985 $ KBC,1 $ AUTOTS,OFF $ DELTIM,0.001 $ SOLVE
ESEL,S,MAT,,1 $ ESEL,R,CENT,Z,(0.0+0.0007)/2 $ BFE,ALL,HGEN,1,280.0/4.375000000000001e-07 $ ALLSEL
TIME,3.082709478 $ KBC,1 $ AUTOTS,OFF $ DELTIM,0.0002605616249999887 $ SOLVE
ESEL,S,MAT,,1 $ ESEL,R,CENT,Z,(0.0+0.0007)/2 $ BFE,ALL,HGEN,1,700.0/4.375000000000001e-07 $ ALLSEL
TIME,3.089465046 $ KBC,1 $ AUTOTS,OFF $ DELTIM,0.0008444459999999987 $ SOLVE
ESEL,S,MAT,,1 $ ESEL,R,CENT,Z,(0.0+0.0007)/2 $ BFE,ALL,HGEN,1,84.0/4.375000000000001e-07 $ ALLSEL
TIME,3.098723145 $ KBC,1 $ AUTOTS,OFF $ DELTIM,0.001 $ SOLVE
ESEL,S,MAT,,1 $ ESEL,R,CENT,Z,(0.0+0.0007)/2 $ BFE,ALL,HGEN,1,140.0/4.375000000000001e-07 $ ALLSEL
TIME,3.098799538 $ KBC,1 $ AUTOTS,OFF $ DELTIM,1.25e-05 $ SOLVE
ESEL,S,MAT,,1 $ ESEL,R,CENT,Z,(0.0+0.0007)/2 $ BFE,ALL,HGEN,1,700.0/4.375000000000001e-07 $ ALLSEL
TIME,3.111107504 $ KBC,1 $ AUTOTS,OFF $ DELTIM,0.001 $ SOLVE
ESEL,S,MAT,,1 $ ESEL,R,CENT,Z,(0.0+0.0007)/2 $ BFE,ALL,HGEN,1,140.0/4.375000000000001e-07 $ ALLSEL
TIME,3.111183895 $ KBC,1 $ AUTOTS,OFF $ DELTIM,1.25e-05 $ SOLVE
ESEL,S,MAT,,1 $ ESEL,R,CENT,Z,(0.0+0.0007)/2 $ BFE,ALL,HGEN,1,280.0/4.375000000000001e-07 $ ALLSEL
TIME,3.111247658 $ KBC,1 $ AUTOTS,OFF $ DELTIM,1.25e-05 $ SOLVE
ESEL,S,MAT,,1 $ ESEL,R,CENT,Z,(0.0+0.0007)/2 $ BFE,ALL,HGEN,1,84.0/4.375000000000001e-07 $ ALLSEL
TIME,3.121300524 $ KBC,1 $ AUTOTS,OFF $ DELTIM,0.001 $ SOLVE
ESEL,S,MAT,,1 $ ESEL,R,CENT,Z,(0.0+0.0007)/2 $ BFE,ALL,HGEN,1,280.0/4.375000000000001e-07 $ ALLSEL
TIME,3.123385017 $ KBC,1 $ AUTOTS,OFF $ DELTIM,0.0002605616249999887 $ SOLVE
ESEL,S,MAT,,1 $ ESEL,R,CENT,Z,(0.0+0.0007)/2 $ BFE,ALL,HGEN,1,700.0/4.375000000000001e-07 $ ALLSEL
TIME,3.130140585 $ KBC,1 $ AUTOTS,OFF $ DELTIM,0.0008444459999999987 $ SOLVE
ESEL,S,MAT,,1 $ ESEL,R,CENT,Z,(0.0+0.0007)/2 $ BFE,ALL,HGEN,1,84.0/4.375000000000001e-07 $ ALLSEL
TIME,3.139398683 $ KBC,1 $ AUTOTS,OFF $ DELTIM,0.001 $ SOLVE
ESEL,S,MAT,,1 $ ESEL,R,CENT,Z,(0.0+0.0007)/2 $ BFE,ALL,HGEN,1,140.0/4.375000000000001e-07 $ ALLSEL
TIME,3.139475077 $ KBC,1 $ AUTOTS,OFF $ DELTIM,1.25e-05 $ SOLVE
ESEL,S,MAT,,1 $ ESEL,R,CENT,Z,(0.0+0.0007)/2 $ BFE,ALL,HGEN,1,700.0/4.375000000000001e-07 $ ALLSEL
TIME,3.151783043 $ KBC,1 $ AUTOTS,OFF $ DELTIM,0.001 $ SOLVE
ESEL,S,MAT,,1 $ ESEL,R,CENT,Z,(0.0+0.0007)/2 $ BFE,ALL,HGEN,1,140.0/4.375000000000001e-07 $ ALLSEL
TIME,3.151859433 $ KBC,1 $ AUTOTS,OFF $ DELTIM,1.25e-05 $ SOLVE
ESEL,S,MAT,,1 $ ESEL,R,CENT,Z,(0.0+0.0007)/2 $ BFE,ALL,HGEN,1,280.0/4.375000000000001e-07 $ ALLSEL
TIME,3.151923197 $ KBC,1 $ AUTOTS,OFF $ DELTIM,1.25e-05 $ SOLVE
ESEL,S,MAT,,1 $ ESEL,R,CENT,Z,(0.0+0.0007)/2 $ BFE,ALL,HGEN,1,84.0/4.375000000000001e-07 $ ALLSEL
TIME,3.161976063 $ KBC,1 $ AUTOTS,OFF $ DELTIM,0.001 $ SOLVE
ESEL,S,MAT,,1 $ ESEL,R,CENT,Z,(0.0+0.0007)/2 $ BFE,ALL,HGEN,1,280.0/4.375000000000001e-07 $ ALLSEL
TIME,3.164060556 $ KBC,1 $ AUTOTS,OFF $ DELTIM,0.0002605616249999887 $ SOLVE
ESEL,S,MAT,,1 $ ESEL,R,CENT,Z,(0.0+0.0007)/2 $ BFE,ALL,HGEN,1,700.0/4.375000000000001e-07 $ ALLSEL
TIME,3.170816124 $ KBC,1 $ AUTOTS,OFF $ DELTIM,0.0008444459999999987 $ SOLVE
ESEL,S,MAT,,1 $ ESEL,R,CENT,Z,(0.0+0.0007)/2 $ BFE,ALL,HGEN,1,84.0/4.375000000000001e-07 $ ALLSEL
TIME,3.180074222 $ KBC,1 $ AUTOTS,OFF $ DELTIM,0.001 $ SOLVE
ESEL,S,MAT,,1 $ ESEL,R,CENT,Z,(0.0+0.0007)/2 $ BFE,ALL,HGEN,1,140.0/4.375000000000001e-07 $ ALLSEL
TIME,3.180150616 $ KBC,1 $ AUTOTS,OFF $ DELTIM,1.25e-05 $ SOLVE
ESEL,S,MAT,,1 $ ESEL,R,CENT,Z,(0.0+0.0007)/2 $ BFE,ALL,HGEN,1,700.0/4.375000000000001e-07 $ ALLSEL
TIME,3.192458582 $ KBC,1 $ AUTOTS,OFF $ DELTIM,0.001 $ SOLVE
ESEL,S,MAT,,1 $ ESEL,R,CENT,Z,(0.0+0.0007)/2 $ BFE,ALL,HGEN,1,140.0/4.375000000000001e-07 $ ALLSEL
TIME,3.192534972 $ KBC,1 $ AUTOTS,OFF $ DELTIM,1.25e-05 $ SOLVE
ESEL,S,MAT,,1 $ ESEL,R,CENT,Z,(0.0+0.0007)/2 $ BFE,ALL,HGEN,1,280.0/4.375000000000001e-07 $ ALLSEL
TIME,3.19258838 $ KBC,1 $ AUTOTS,OFF $ DELTIM,1.25e-05 $ SOLVE
ESEL,S,MAT,,1 $ ESEL,R,CENT,Z,(0.0+0.0007)/2 $ BFE,ALL,HGEN,1,280.0/4.375000000000001e-07 $ ALLSEL
TIME,3.192598735 $ KBC,1 $ AUTOTS,OFF $ DELTIM,1.25e-05 $ SOLVE
ESEL,S,MAT,,1 $ ESEL,R,CENT,Z,(0.0+0.0007)/2 $ BFE,ALL,HGEN,1,84.0/4.375000000000001e-07 $ ALLSEL
TIME,3.202641247 $ KBC,1 $ AUTOTS,OFF $ DELTIM,0.001 $ SOLVE
ESEL,S,MAT,,1 $ ESEL,R,CENT,Z,(0.0+0.0007)/2 $ BFE,ALL,HGEN,1,280.0/4.375000000000001e-07 $ ALLSEL
TIME,3.204725739 $ KBC,1 $ AUTOTS,OFF $ DELTIM,0.00026056150000003386 $ SOLVE
ESEL,S,MAT,,1 $ ESEL,R,CENT,Z,(0.0+0.0007)/2 $ BFE,ALL,HGEN,1,700.0/4.375000000000001e-07 $ ALLSEL
TIME,3.211481307 $ KBC,1 $ AUTOTS,OFF $ DELTIM,0.0008444459999999987 $ SOLVE
ESEL,S,MAT,,1 $ ESEL,R,CENT,Z,(0.0+0.0007)/2 $ BFE,ALL,HGEN,1,84.0/4.375000000000001e-07 $ ALLSEL
TIME,3.220739322 $ KBC,1 $ AUTOTS,OFF $ DELTIM,0.001 $ SOLVE
ESEL,S,MAT,,1 $ ESEL,R,CENT,Z,(0.0+0.0007)/2 $ BFE,ALL,HGEN,1,140.0/4.375000000000001e-07 $ ALLSEL
TIME,3.220815716 $ KBC,1 $ AUTOTS,OFF $ DELTIM,1.25e-05 $ SOLVE
ESEL,S,MAT,,1 $ ESEL,R,CENT,Z,(0.0+0.0007)/2 $ BFE,ALL,HGEN,1,84.0/4.375000000000001e-07 $ ALLSEL
TIME,3.32138912 $ KBC,1 $ AUTOTS,OFF $ DELTIM,0.001 $ SOLVE
ESEL,S,MAT,,1 $ ESEL,R,CENT,Z,(0.0+0.0007)/2 $ BFE,ALL,HGEN,1,140.0/4.375000000000001e-07 $ ALLSEL
TIME,3.321540597 $ KBC,1 $ AUTOTS,OFF $ DELTIM,1.8934624999966676e-05 $ SOLVE
ESEL,S,MAT,,1 $ ESEL,R,CENT,Z,(0.0+0.0007)/2 $ BFE,ALL,HGEN,1,280.0/4.375000000000001e-07 $ ALLSEL
TIME,3.321544018 $ KBC,1 $ AUTOTS,OFF $ DELTIM,1.25e-05 $ SOLVE
ESEL,S,MAT,,1 $ ESEL,R,CENT,Z,(0.0+0.0007)/2 $ BFE,ALL,HGEN,1,84.0/4.375000000000001e-07 $ ALLSEL
TIME,3.331593464 $ KBC,1 $ AUTOTS,OFF $ DELTIM,0.001 $ SOLVE
ESEL,S,MAT,,1 $ ESEL,R,CENT,Z,(0.0+0.0007)/2 $ BFE,ALL,HGEN,1,280.0/4.375000000000001e-07 $ ALLSEL
TIME,3.331684958 $ KBC,1 $ AUTOTS,OFF $ DELTIM,1.25e-05 $ SOLVE
ESEL,S,MAT,,1 $ ESEL,R,CENT,Z,(0.0+0.0007)/2 $ BFE,ALL,HGEN,1,700.0/4.375000000000001e-07 $ ALLSEL
TIME,3.336276836 $ KBC,1 $ AUTOTS,OFF $ DELTIM,0.0005739847500000339 $ SOLVE
ESEL,S,MAT,,1 $ ESEL,R,CENT,Z,(0.0+0.0007)/2 $ BFE,ALL,HGEN,1,84.0/4.375000000000001e-07 $ ALLSEL
TIME,3.345228564 $ KBC,1 $ AUTOTS,OFF $ DELTIM,0.001 $ SOLVE
ESEL,S,MAT,,1 $ ESEL,R,CENT,Z,(0.0+0.0007)/2 $ BFE,ALL,HGEN,1,280.0/4.375000000000001e-07 $ ALLSEL
TIME,3.345350634 $ KBC,1 $ AUTOTS,OFF $ DELTIM,1.5258749999969012e-05 $ SOLVE
ESEL,S,MAT,,1 $ ESEL,R,CENT,Z,(0.0+0.0007)/2 $ BFE,ALL,HGEN,1,140.0/4.375000000000001e-07 $ ALLSEL
TIME,3.345502101 $ KBC,1 $ AUTOTS,OFF $ DELTIM,1.8933375000029784e-05 $ SOLVE
ESEL,S,MAT,,1 $ ESEL,R,CENT,Z,(0.0+0.0007)/2 $ BFE,ALL,HGEN,1,700.0/4.375000000000001e-07 $ ALLSEL
TIME,3.370118033 $ KBC,1 $ AUTOTS,OFF $ DELTIM,0.001 $ SOLVE
ESEL,S,MAT,,1 $ ESEL,R,CENT,Z,(0.0+0.0007)/2 $ BFE,ALL,HGEN,1,84.0/4.375000000000001e-07 $ ALLSEL
TIME,3.373832188 $ KBC,1 $ AUTOTS,OFF $ DELTIM,0.00046426937500004817 $ SOLVE
ESEL,S,MAT,,1 $ ESEL,R,CENT,Z,(0.0+0.0007)/2 $ BFE,ALL,HGEN,1,140.0/4.375000000000001e-07 $ ALLSEL
TIME,3.373983665 $ KBC,1 $ AUTOTS,OFF $ DELTIM,1.8934624999966676e-05 $ SOLVE
ESEL,S,MAT,,1 $ ESEL,R,CENT,Z,(0.0+0.0007)/2 $ BFE,ALL,HGEN,1,280.0/4.375000000000001e-07 $ ALLSEL
TIME,3.373987086 $ KBC,1 $ AUTOTS,OFF $ DELTIM,1.25e-05 $ SOLVE
ESEL,S,MAT,,1 $ ESEL,R,CENT,Z,(0.0+0.0007)/2 $ BFE,ALL,HGEN,1,84.0/4.375000000000001e-07 $ ALLSEL
TIME,3.384036531 $ KBC,1 $ AUTOTS,OFF $ DELTIM,0.001 $ SOLVE
ESEL,S,MAT,,1 $ ESEL,R,CENT,Z,(0.0+0.0007)/2 $ BFE,ALL,HGEN,1,280.0/4.375000000000001e-07 $ ALLSEL
TIME,3.384128026 $ KBC,1 $ AUTOTS,OFF $ DELTIM,1.25e-05 $ SOLVE
ESEL,S,MAT,,1 $ ESEL,R,CENT,Z,(0.0+0.0007)/2 $ BFE,ALL,HGEN,1,700.0/4.375000000000001e-07 $ ALLSEL
TIME,3.388719904 $ KBC,1 $ AUTOTS,OFF $ DELTIM,0.0005739847499999784 $ SOLVE
ESEL,S,MAT,,1 $ ESEL,R,CENT,Z,(0.0+0.0007)/2 $ BFE,ALL,HGEN,1,84.0/4.375000000000001e-07 $ ALLSEL
TIME,3.397564893 $ KBC,1 $ AUTOTS,OFF $ DELTIM,0.001 $ SOLVE
ESEL,S,MAT,,1 $ ESEL,R,CENT,Z,(0.0+0.0007)/2 $ BFE,ALL,HGEN,1,280.0/4.375000000000001e-07 $ ALLSEL
TIME,3.397686963 $ KBC,1 $ AUTOTS,OFF $ DELTIM,1.5258749999969012e-05 $ SOLVE
ESEL,S,MAT,,1 $ ESEL,R,CENT,Z,(0.0+0.0007)/2 $ BFE,ALL,HGEN,1,140.0/4.375000000000001e-07 $ ALLSEL
TIME,3.39783843 $ KBC,1 $ AUTOTS,OFF $ DELTIM,1.8933375000029784e-05 $ SOLVE
ESEL,S,MAT,,1 $ ESEL,R,CENT,Z,(0.0+0.0007)/2 $ BFE,ALL,HGEN,1,700.0/4.375000000000001e-07 $ ALLSEL
TIME,3.422454362 $ KBC,1 $ AUTOTS,OFF $ DELTIM,0.001 $ SOLVE
ESEL,S,MAT,,1 $ ESEL,R,CENT,Z,(0.0+0.0007)/2 $ BFE,ALL,HGEN,1,84.0/4.375000000000001e-07 $ ALLSEL
TIME,3.467450324 $ KBC,1 $ AUTOTS,OFF $ DELTIM,0.001 $ SOLVE
ESEL,S,MAT,,1 $ ESEL,R,CENT,Z,(0.0+0.0007)/2 $ BFE,ALL,HGEN,1,140.0/4.375000000000001e-07 $ ALLSEL
TIME,3.467601801 $ KBC,1 $ AUTOTS,OFF $ DELTIM,1.8934624999966676e-05 $ SOLVE
ESEL,S,MAT,,1 $ ESEL,R,CENT,Z,(0.0+0.0007)/2 $ BFE,ALL,HGEN,1,280.0/4.375000000000001e-07 $ ALLSEL
TIME,3.467605222 $ KBC,1 $ AUTOTS,OFF $ DELTIM,1.25e-05 $ SOLVE
ESEL,S,MAT,,1 $ ESEL,R,CENT,Z,(0.0+0.0007)/2 $ BFE,ALL,HGEN,1,84.0/4.375000000000001e-07 $ ALLSEL
TIME,3.477654667 $ KBC,1 $ AUTOTS,OFF $ DELTIM,0.001 $ SOLVE
ESEL,S,MAT,,1 $ ESEL,R,CENT,Z,(0.0+0.0007)/2 $ BFE,ALL,HGEN,1,280.0/4.375000000000001e-07 $ ALLSEL
TIME,3.477746161 $ KBC,1 $ AUTOTS,OFF $ DELTIM,1.25e-05 $ SOLVE
ESEL,S,MAT,,1 $ ESEL,R,CENT,Z,(0.0+0.0007)/2 $ BFE,ALL,HGEN,1,700.0/4.375000000000001e-07 $ ALLSEL
TIME,3.48233804 $ KBC,1 $ AUTOTS,OFF $ DELTIM,0.0005739848750000442 $ SOLVE
ESEL,S,MAT,,1 $ ESEL,R,CENT,Z,(0.0+0.0007)/2 $ BFE,ALL,HGEN,1,84.0/4.375000000000001e-07 $ ALLSEL
TIME,3.491232701 $ KBC,1 $ AUTOTS,OFF $ DELTIM,0.001 $ SOLVE
ESEL,S,MAT,,1 $ ESEL,R,CENT,Z,(0.0+0.0007)/2 $ BFE,ALL,HGEN,1,280.0/4.375000000000001e-07 $ ALLSEL
TIME,3.491354771 $ KBC,1 $ AUTOTS,OFF $ DELTIM,1.5258750000024524e-05 $ SOLVE
ESEL,S,MAT,,1 $ ESEL,R,CENT,Z,(0.0+0.0007)/2 $ BFE,ALL,HGEN,1,140.0/4.375000000000001e-07 $ ALLSEL
TIME,3.491506239 $ KBC,1 $ AUTOTS,OFF $ DELTIM,1.8933499999984615e-05 $ SOLVE
ESEL,S,MAT,,1 $ ESEL,R,CENT,Z,(0.0+0.0007)/2 $ BFE,ALL,HGEN,1,700.0/4.375000000000001e-07 $ ALLSEL
TIME,3.516122171 $ KBC,1 $ AUTOTS,OFF $ DELTIM,0.001 $ SOLVE
ESEL,S,MAT,,1 $ ESEL,R,CENT,Z,(0.0+0.0007)/2 $ BFE,ALL,HGEN,1,84.0/4.375000000000001e-07 $ ALLSEL
TIME,3.523798231 $ KBC,1 $ AUTOTS,OFF $ DELTIM,0.0009595074999999564 $ SOLVE
ESEL,S,MAT,,1 $ ESEL,R,CENT,Z,(0.0+0.0007)/2 $ BFE,ALL,HGEN,1,140.0/4.375000000000001e-07 $ ALLSEL
TIME,3.523949709 $ KBC,1 $ AUTOTS,OFF $ DELTIM,1.893475000003253e-05 $ SOLVE
ESEL,S,MAT,,1 $ ESEL,R,CENT,Z,(0.0+0.0007)/2 $ BFE,ALL,HGEN,1,280.0/4.375000000000001e-07 $ ALLSEL
TIME,3.523953129 $ KBC,1 $ AUTOTS,OFF $ DELTIM,1.25e-05 $ SOLVE
ESEL,S,MAT,,1 $ ESEL,R,CENT,Z,(0.0+0.0007)/2 $ BFE,ALL,HGEN,1,84.0/4.375000000000001e-07 $ ALLSEL
TIME,3.534002575 $ KBC,1 $ AUTOTS,OFF $ DELTIM,0.001 $ SOLVE
ESEL,S,MAT,,1 $ ESEL,R,CENT,Z,(0.0+0.0007)/2 $ BFE,ALL,HGEN,1,280.0/4.375000000000001e-07 $ ALLSEL
TIME,3.534094069 $ KBC,1 $ AUTOTS,OFF $ DELTIM,1.25e-05 $ SOLVE
ESEL,S,MAT,,1 $ ESEL,R,CENT,Z,(0.0+0.0007)/2 $ BFE,ALL,HGEN,1,700.0/4.375000000000001e-07 $ ALLSEL
TIME,3.538685948 $ KBC,1 $ AUTOTS,OFF $ DELTIM,0.0005739848749999887 $ SOLVE
ESEL,S,MAT,,1 $ ESEL,R,CENT,Z,(0.0+0.0007)/2 $ BFE,ALL,HGEN,1,84.0/4.375000000000001e-07 $ ALLSEL
TIME,3.547630198 $ KBC,1 $ AUTOTS,OFF $ DELTIM,0.001 $ SOLVE
ESEL,S,MAT,,1 $ ESEL,R,CENT,Z,(0.0+0.0007)/2 $ BFE,ALL,HGEN,1,280.0/4.375000000000001e-07 $ ALLSEL
TIME,3.547752268 $ KBC,1 $ AUTOTS,OFF $ DELTIM,1.5258750000024524e-05 $ SOLVE
ESEL,S,MAT,,1 $ ESEL,R,CENT,Z,(0.0+0.0007)/2 $ BFE,ALL,HGEN,1,140.0/4.375000000000001e-07 $ ALLSEL
TIME,3.547903736 $ KBC,1 $ AUTOTS,OFF $ DELTIM,1.8933499999984615e-05 $ SOLVE
ESEL,S,MAT,,1 $ ESEL,R,CENT,Z,(0.0+0.0007)/2 $ BFE,ALL,HGEN,1,700.0/4.375000000000001e-07 $ ALLSEL
TIME,3.572519668 $ KBC,1 $ AUTOTS,OFF $ DELTIM,0.001 $ SOLVE
ESEL,S,MAT,,1 $ ESEL,R,CENT,Z,(0.0+0.0007)/2 $ BFE,ALL,HGEN,1,84.0/4.375000000000001e-07 $ ALLSEL
TIME,3.620950179 $ KBC,1 $ AUTOTS,OFF $ DELTIM,0.001 $ SOLVE
ESEL,S,MAT,,1 $ ESEL,R,CENT,Z,(0.0+0.0007)/2 $ BFE,ALL,HGEN,1,84.0/4.375000000000001e-07 $ ALLSEL
TIME,3.661615696 $ KBC,1 $ AUTOTS,OFF $ DELTIM,0.001 $ SOLVE
ESEL,S,MAT,,1 $ ESEL,R,CENT,Z,(0.0+0.0007)/2 $ BFE,ALL,HGEN,1,700.0/4.375000000000001e-07 $ ALLSEL
TIME,3.673923661 $ KBC,1 $ AUTOTS,OFF $ DELTIM,0.001 $ SOLVE
ESEL,S,MAT,,1 $ ESEL,R,CENT,Z,(0.0+0.0007)/2 $ BFE,ALL,HGEN,1,140.0/4.375000000000001e-07 $ ALLSEL
TIME,3.674000052 $ KBC,1 $ AUTOTS,OFF $ DELTIM,1.25e-05 $ SOLVE
ESEL,S,MAT,,1 $ ESEL,R,CENT,Z,(0.0+0.0007)/2 $ BFE,ALL,HGEN,1,280.0/4.375000000000001e-07 $ ALLSEL
TIME,3.674063815 $ KBC,1 $ AUTOTS,OFF $ DELTIM,1.25e-05 $ SOLVE
ESEL,S,MAT,,1 $ ESEL,R,CENT,Z,(0.0+0.0007)/2 $ BFE,ALL,HGEN,1,84.0/4.375000000000001e-07 $ ALLSEL
TIME,3.684116682 $ KBC,1 $ AUTOTS,OFF $ DELTIM,0.001 $ SOLVE
ESEL,S,MAT,,1 $ ESEL,R,CENT,Z,(0.0+0.0007)/2 $ BFE,ALL,HGEN,1,280.0/4.375000000000001e-07 $ ALLSEL
TIME,3.686201174 $ KBC,1 $ AUTOTS,OFF $ DELTIM,0.00026056149999997835 $ SOLVE
ESEL,S,MAT,,1 $ ESEL,R,CENT,Z,(0.0+0.0007)/2 $ BFE,ALL,HGEN,1,700.0/4.375000000000001e-07 $ ALLSEL
TIME,3.692956743 $ KBC,1 $ AUTOTS,OFF $ DELTIM,0.000844446125000009 $ SOLVE
ESEL,S,MAT,,1 $ ESEL,R,CENT,Z,(0.0+0.0007)/2 $ BFE,ALL,HGEN,1,84.0/4.375000000000001e-07 $ ALLSEL
TIME,3.702214841 $ KBC,1 $ AUTOTS,OFF $ DELTIM,0.001 $ SOLVE
ESEL,S,MAT,,1 $ ESEL,R,CENT,Z,(0.0+0.0007)/2 $ BFE,ALL,HGEN,1,140.0/4.375000000000001e-07 $ ALLSEL
TIME,3.702291234 $ KBC,1 $ AUTOTS,OFF $ DELTIM,1.25e-05 $ SOLVE
ESEL,S,MAT,,1 $ ESEL,R,CENT,Z,(0.0+0.0007)/2 $ BFE,ALL,HGEN,1,700.0/4.375000000000001e-07 $ ALLSEL
TIME,3.7145992 $ KBC,1 $ AUTOTS,OFF $ DELTIM,0.001 $ SOLVE
ESEL,S,MAT,,1 $ ESEL,R,CENT,Z,(0.0+0.0007)/2 $ BFE,ALL,HGEN,1,140.0/4.375000000000001e-07 $ ALLSEL
TIME,3.714675591 $ KBC,1 $ AUTOTS,OFF $ DELTIM,1.25e-05 $ SOLVE
ESEL,S,MAT,,1 $ ESEL,R,CENT,Z,(0.0+0.0007)/2 $ BFE,ALL,HGEN,1,280.0/4.375000000000001e-07 $ ALLSEL
TIME,3.714739354 $ KBC,1 $ AUTOTS,OFF $ DELTIM,1.25e-05 $ SOLVE
ESEL,S,MAT,,1 $ ESEL,R,CENT,Z,(0.0+0.0007)/2 $ BFE,ALL,HGEN,1,84.0/4.375000000000001e-07 $ ALLSEL
TIME,3.72479222 $ KBC,1 $ AUTOTS,OFF $ DELTIM,0.001 $ SOLVE
ESEL,S,MAT,,1 $ ESEL,R,CENT,Z,(0.0+0.0007)/2 $ BFE,ALL,HGEN,1,280.0/4.375000000000001e-07 $ ALLSEL
TIME,3.726876713 $ KBC,1 $ AUTOTS,OFF $ DELTIM,0.0002605616249999887 $ SOLVE
ESEL,S,MAT,,1 $ ESEL,R,CENT,Z,(0.0+0.0007)/2 $ BFE,ALL,HGEN,1,700.0/4.375000000000001e-07 $ ALLSEL
TIME,3.733632281 $ KBC,1 $ AUTOTS,OFF $ DELTIM,0.0008444460000000542 $ SOLVE
ESEL,S,MAT,,1 $ ESEL,R,CENT,Z,(0.0+0.0007)/2 $ BFE,ALL,HGEN,1,84.0/4.375000000000001e-07 $ ALLSEL
TIME,3.74289038 $ KBC,1 $ AUTOTS,OFF $ DELTIM,0.001 $ SOLVE
ESEL,S,MAT,,1 $ ESEL,R,CENT,Z,(0.0+0.0007)/2 $ BFE,ALL,HGEN,1,140.0/4.375000000000001e-07 $ ALLSEL
TIME,3.742966773 $ KBC,1 $ AUTOTS,OFF $ DELTIM,1.25e-05 $ SOLVE
ESEL,S,MAT,,1 $ ESEL,R,CENT,Z,(0.0+0.0007)/2 $ BFE,ALL,HGEN,1,700.0/4.375000000000001e-07 $ ALLSEL
TIME,3.755274739 $ KBC,1 $ AUTOTS,OFF $ DELTIM,0.001 $ SOLVE
ESEL,S,MAT,,1 $ ESEL,R,CENT,Z,(0.0+0.0007)/2 $ BFE,ALL,HGEN,1,140.0/4.375000000000001e-07 $ ALLSEL
TIME,3.75535113 $ KBC,1 $ AUTOTS,OFF $ DELTIM,1.25e-05 $ SOLVE
ESEL,S,MAT,,1 $ ESEL,R,CENT,Z,(0.0+0.0007)/2 $ BFE,ALL,HGEN,1,280.0/4.375000000000001e-07 $ ALLSEL
TIME,3.755414893 $ KBC,1 $ AUTOTS,OFF $ DELTIM,1.25e-05 $ SOLVE
ESEL,S,MAT,,1 $ ESEL,R,CENT,Z,(0.0+0.0007)/2 $ BFE,ALL,HGEN,1,84.0/4.375000000000001e-07 $ ALLSEL
TIME,3.765467759 $ KBC,1 $ AUTOTS,OFF $ DELTIM,0.001 $ SOLVE
ESEL,S,MAT,,1 $ ESEL,R,CENT,Z,(0.0+0.0007)/2 $ BFE,ALL,HGEN,1,280.0/4.375000000000001e-07 $ ALLSEL
TIME,3.767552252 $ KBC,1 $ AUTOTS,OFF $ DELTIM,0.0002605616250000442 $ SOLVE
ESEL,S,MAT,,1 $ ESEL,R,CENT,Z,(0.0+0.0007)/2 $ BFE,ALL,HGEN,1,700.0/4.375000000000001e-07 $ ALLSEL
TIME,3.77430782 $ KBC,1 $ AUTOTS,OFF $ DELTIM,0.0008444459999999987 $ SOLVE
ESEL,S,MAT,,1 $ ESEL,R,CENT,Z,(0.0+0.0007)/2 $ BFE,ALL,HGEN,1,84.0/4.375000000000001e-07 $ ALLSEL
TIME,3.783565919 $ KBC,1 $ AUTOTS,OFF $ DELTIM,0.001 $ SOLVE
ESEL,S,MAT,,1 $ ESEL,R,CENT,Z,(0.0+0.0007)/2 $ BFE,ALL,HGEN,1,140.0/4.375000000000001e-07 $ ALLSEL
TIME,3.783642312 $ KBC,1 $ AUTOTS,OFF $ DELTIM,1.25e-05 $ SOLVE
ESEL,S,MAT,,1 $ ESEL,R,CENT,Z,(0.0+0.0007)/2 $ BFE,ALL,HGEN,1,700.0/4.375000000000001e-07 $ ALLSEL
TIME,3.795950278 $ KBC,1 $ AUTOTS,OFF $ DELTIM,0.001 $ SOLVE
ESEL,S,MAT,,1 $ ESEL,R,CENT,Z,(0.0+0.0007)/2 $ BFE,ALL,HGEN,1,140.0/4.375000000000001e-07 $ ALLSEL
TIME,3.796026669 $ KBC,1 $ AUTOTS,OFF $ DELTIM,1.25e-05 $ SOLVE
ESEL,S,MAT,,1 $ ESEL,R,CENT,Z,(0.0+0.0007)/2 $ BFE,ALL,HGEN,1,280.0/4.375000000000001e-07 $ ALLSEL
TIME,3.796080077 $ KBC,1 $ AUTOTS,OFF $ DELTIM,1.25e-05 $ SOLVE
ESEL,S,MAT,,1 $ ESEL,R,CENT,Z,(0.0+0.0007)/2 $ BFE,ALL,HGEN,1,280.0/4.375000000000001e-07 $ ALLSEL
TIME,3.796090432 $ KBC,1 $ AUTOTS,OFF $ DELTIM,1.25e-05 $ SOLVE
ESEL,S,MAT,,1 $ ESEL,R,CENT,Z,(0.0+0.0007)/2 $ BFE,ALL,HGEN,1,84.0/4.375000000000001e-07 $ ALLSEL
TIME,3.806132943 $ KBC,1 $ AUTOTS,OFF $ DELTIM,0.001 $ SOLVE
ESEL,S,MAT,,1 $ ESEL,R,CENT,Z,(0.0+0.0007)/2 $ BFE,ALL,HGEN,1,280.0/4.375000000000001e-07 $ ALLSEL
TIME,3.808217436 $ KBC,1 $ AUTOTS,OFF $ DELTIM,0.0002605616249999887 $ SOLVE
ESEL,S,MAT,,1 $ ESEL,R,CENT,Z,(0.0+0.0007)/2 $ BFE,ALL,HGEN,1,700.0/4.375000000000001e-07 $ ALLSEL
TIME,3.814973004 $ KBC,1 $ AUTOTS,OFF $ DELTIM,0.0008444459999999987 $ SOLVE
ESEL,S,MAT,,1 $ ESEL,R,CENT,Z,(0.0+0.0007)/2 $ BFE,ALL,HGEN,1,84.0/4.375000000000001e-07 $ ALLSEL
TIME,3.824231019 $ KBC,1 $ AUTOTS,OFF $ DELTIM,0.001 $ SOLVE
ESEL,S,MAT,,1 $ ESEL,R,CENT,Z,(0.0+0.0007)/2 $ BFE,ALL,HGEN,1,140.0/4.375000000000001e-07 $ ALLSEL
TIME,3.824307412 $ KBC,1 $ AUTOTS,OFF $ DELTIM,1.25e-05 $ SOLVE
ESEL,S,MAT,,1 $ ESEL,R,CENT,Z,(0.0+0.0007)/2 $ BFE,ALL,HGEN,1,84.0/4.375000000000001e-07 $ ALLSEL
TIME,3.924880817 $ KBC,1 $ AUTOTS,OFF $ DELTIM,0.001 $ SOLVE
ESEL,S,MAT,,1 $ ESEL,R,CENT,Z,(0.0+0.0007)/2 $ BFE,ALL,HGEN,1,140.0/4.375000000000001e-07 $ ALLSEL
TIME,3.925032294 $ KBC,1 $ AUTOTS,OFF $ DELTIM,1.8934625000022187e-05 $ SOLVE
ESEL,S,MAT,,1 $ ESEL,R,CENT,Z,(0.0+0.0007)/2 $ BFE,ALL,HGEN,1,280.0/4.375000000000001e-07 $ ALLSEL
TIME,3.925035715 $ KBC,1 $ AUTOTS,OFF $ DELTIM,1.25e-05 $ SOLVE
ESEL,S,MAT,,1 $ ESEL,R,CENT,Z,(0.0+0.0007)/2 $ BFE,ALL,HGEN,1,84.0/4.375000000000001e-07 $ ALLSEL
TIME,3.93508516 $ KBC,1 $ AUTOTS,OFF $ DELTIM,0.001 $ SOLVE
ESEL,S,MAT,,1 $ ESEL,R,CENT,Z,(0.0+0.0007)/2 $ BFE,ALL,HGEN,1,280.0/4.375000000000001e-07 $ ALLSEL
TIME,3.935176654 $ KBC,1 $ AUTOTS,OFF $ DELTIM,1.25e-05 $ SOLVE
ESEL,S,MAT,,1 $ ESEL,R,CENT,Z,(0.0+0.0007)/2 $ BFE,ALL,HGEN,1,700.0/4.375000000000001e-07 $ ALLSEL
TIME,3.939768533 $ KBC,1 $ AUTOTS,OFF $ DELTIM,0.0005739848749999887 $ SOLVE
ESEL,S,MAT,,1 $ ESEL,R,CENT,Z,(0.0+0.0007)/2 $ BFE,ALL,HGEN,1,84.0/4.375000000000001e-07 $ ALLSEL
TIME,3.94872026 $ KBC,1 $ AUTOTS,OFF $ DELTIM,0.001 $ SOLVE
ESEL,S,MAT,,1 $ ESEL,R,CENT,Z,(0.0+0.0007)/2 $ BFE,ALL,HGEN,1,280.0/4.375000000000001e-07 $ ALLSEL
TIME,3.94884233 $ KBC,1 $ AUTOTS,OFF $ DELTIM,1.5258750000024524e-05 $ SOLVE
ESEL,S,MAT,,1 $ ESEL,R,CENT,Z,(0.0+0.0007)/2 $ BFE,ALL,HGEN,1,140.0/4.375000000000001e-07 $ ALLSEL
TIME,3.948993798 $ KBC,1 $ AUTOTS,OFF $ DELTIM,1.8933499999984615e-05 $ SOLVE
ESEL,S,MAT,,1 $ ESEL,R,CENT,Z,(0.0+0.0007)/2 $ BFE,ALL,HGEN,1,700.0/4.375000000000001e-07 $ ALLSEL
TIME,3.97360973 $ KBC,1 $ AUTOTS,OFF $ DELTIM,0.001 $ SOLVE
ESEL,S,MAT,,1 $ ESEL,R,CENT,Z,(0.0+0.0007)/2 $ BFE,ALL,HGEN,1,84.0/4.375000000000001e-07 $ ALLSEL
TIME,3.977323884 $ KBC,1 $ AUTOTS,OFF $ DELTIM,0.0004642692499999823 $ SOLVE
ESEL,S,MAT,,1 $ ESEL,R,CENT,Z,(0.0+0.0007)/2 $ BFE,ALL,HGEN,1,140.0/4.375000000000001e-07 $ ALLSEL
TIME,3.977475361 $ KBC,1 $ AUTOTS,OFF $ DELTIM,1.8934625000022187e-05 $ SOLVE
ESEL,S,MAT,,1 $ ESEL,R,CENT,Z,(0.0+0.0007)/2 $ BFE,ALL,HGEN,1,280.0/4.375000000000001e-07 $ ALLSEL
TIME,3.977478782 $ KBC,1 $ AUTOTS,OFF $ DELTIM,1.25e-05 $ SOLVE
ESEL,S,MAT,,1 $ ESEL,R,CENT,Z,(0.0+0.0007)/2 $ BFE,ALL,HGEN,1,84.0/4.375000000000001e-07 $ ALLSEL
TIME,3.987528228 $ KBC,1 $ AUTOTS,OFF $ DELTIM,0.001 $ SOLVE
ESEL,S,MAT,,1 $ ESEL,R,CENT,Z,(0.0+0.0007)/2 $ BFE,ALL,HGEN,1,280.0/4.375000000000001e-07 $ ALLSEL
TIME,3.987619722 $ KBC,1 $ AUTOTS,OFF $ DELTIM,1.25e-05 $ SOLVE
ESEL,S,MAT,,1 $ ESEL,R,CENT,Z,(0.0+0.0007)/2 $ BFE,ALL,HGEN,1,700.0/4.375000000000001e-07 $ ALLSEL
TIME,3.9922116 $ KBC,1 $ AUTOTS,OFF $ DELTIM,0.0005739847500000339 $ SOLVE
ESEL,S,MAT,,1 $ ESEL,R,CENT,Z,(0.0+0.0007)/2 $ BFE,ALL,HGEN,1,84.0/4.375000000000001e-07 $ ALLSEL
TIME,4.001056589 $ KBC,1 $ AUTOTS,OFF $ DELTIM,0.001 $ SOLVE
ESEL,S,MAT,,1 $ ESEL,R,CENT,Z,(0.0+0.0007)/2 $ BFE,ALL,HGEN,1,280.0/4.375000000000001e-07 $ ALLSEL
TIME,4.001178659 $ KBC,1 $ AUTOTS,OFF $ DELTIM,1.5258749999969012e-05 $ SOLVE
ESEL,S,MAT,,1 $ ESEL,R,CENT,Z,(0.0+0.0007)/2 $ BFE,ALL,HGEN,1,140.0/4.375000000000001e-07 $ ALLSEL
TIME,4.001330127 $ KBC,1 $ AUTOTS,OFF $ DELTIM,1.8933500000040127e-05 $ SOLVE
ESEL,S,MAT,,1 $ ESEL,R,CENT,Z,(0.0+0.0007)/2 $ BFE,ALL,HGEN,1,700.0/4.375000000000001e-07 $ ALLSEL
TIME,4.025946058 $ KBC,1 $ AUTOTS,OFF $ DELTIM,0.001 $ SOLVE
ESEL,S,MAT,,1 $ ESEL,R,CENT,Z,(0.0+0.0007)/2 $ BFE,ALL,HGEN,1,84.0/4.375000000000001e-07 $ ALLSEL
TIME,4.07094202 $ KBC,1 $ AUTOTS,OFF $ DELTIM,0.001 $ SOLVE
ESEL,S,MAT,,1 $ ESEL,R,CENT,Z,(0.0+0.0007)/2 $ BFE,ALL,HGEN,1,140.0/4.375000000000001e-07 $ ALLSEL
TIME,4.071093497 $ KBC,1 $ AUTOTS,OFF $ DELTIM,1.8934624999911165e-05 $ SOLVE
ESEL,S,MAT,,1 $ ESEL,R,CENT,Z,(0.0+0.0007)/2 $ BFE,ALL,HGEN,1,280.0/4.375000000000001e-07 $ ALLSEL
TIME,4.071096918 $ KBC,1 $ AUTOTS,OFF $ DELTIM,1.25e-05 $ SOLVE
ESEL,S,MAT,,1 $ ESEL,R,CENT,Z,(0.0+0.0007)/2 $ BFE,ALL,HGEN,1,84.0/4.375000000000001e-07 $ ALLSEL
TIME,4.081146363 $ KBC,1 $ AUTOTS,OFF $ DELTIM,0.001 $ SOLVE
ESEL,S,MAT,,1 $ ESEL,R,CENT,Z,(0.0+0.0007)/2 $ BFE,ALL,HGEN,1,280.0/4.375000000000001e-07 $ ALLSEL
TIME,4.081237858 $ KBC,1 $ AUTOTS,OFF $ DELTIM,1.25e-05 $ SOLVE
ESEL,S,MAT,,1 $ ESEL,R,CENT,Z,(0.0+0.0007)/2 $ BFE,ALL,HGEN,1,700.0/4.375000000000001e-07 $ ALLSEL
TIME,4.085829736 $ KBC,1 $ AUTOTS,OFF $ DELTIM,0.0005739847500000339 $ SOLVE
ESEL,S,MAT,,1 $ ESEL,R,CENT,Z,(0.0+0.0007)/2 $ BFE,ALL,HGEN,1,84.0/4.375000000000001e-07 $ ALLSEL
TIME,4.094724397 $ KBC,1 $ AUTOTS,OFF $ DELTIM,0.001 $ SOLVE
ESEL,S,MAT,,1 $ ESEL,R,CENT,Z,(0.0+0.0007)/2 $ BFE,ALL,HGEN,1,280.0/4.375000000000001e-07 $ ALLSEL
TIME,4.094846468 $ KBC,1 $ AUTOTS,OFF $ DELTIM,1.5258874999979355e-05 $ SOLVE
ESEL,S,MAT,,1 $ ESEL,R,CENT,Z,(0.0+0.0007)/2 $ BFE,ALL,HGEN,1,140.0/4.375000000000001e-07 $ ALLSEL
TIME,4.094997935 $ KBC,1 $ AUTOTS,OFF $ DELTIM,1.8933375000029784e-05 $ SOLVE
ESEL,S,MAT,,1 $ ESEL,R,CENT,Z,(0.0+0.0007)/2 $ BFE,ALL,HGEN,1,700.0/4.375000000000001e-07 $ ALLSEL
TIME,4.119613867 $ KBC,1 $ AUTOTS,OFF $ DELTIM,0.001 $ SOLVE
ESEL,S,MAT,,1 $ ESEL,R,CENT,Z,(0.0+0.0007)/2 $ BFE,ALL,HGEN,1,84.0/4.375000000000001e-07 $ ALLSEL
TIME,4.127289928 $ KBC,1 $ AUTOTS,OFF $ DELTIM,0.0009595076249999668 $ SOLVE
ESEL,S,MAT,,1 $ ESEL,R,CENT,Z,(0.0+0.0007)/2 $ BFE,ALL,HGEN,1,140.0/4.375000000000001e-07 $ ALLSEL
TIME,4.127441405 $ KBC,1 $ AUTOTS,OFF $ DELTIM,1.8934625000022187e-05 $ SOLVE
ESEL,S,MAT,,1 $ ESEL,R,CENT,Z,(0.0+0.0007)/2 $ BFE,ALL,HGEN,1,280.0/4.375000000000001e-07 $ ALLSEL
TIME,4.127444826 $ KBC,1 $ AUTOTS,OFF $ DELTIM,1.25e-05 $ SOLVE
ESEL,S,MAT,,1 $ ESEL,R,CENT,Z,(0.0+0.0007)/2 $ BFE,ALL,HGEN,1,84.0/4.375000000000001e-07 $ ALLSEL
TIME,4.137494271 $ KBC,1 $ AUTOTS,OFF $ DELTIM,0.001 $ SOLVE
ESEL,S,MAT,,1 $ ESEL,R,CENT,Z,(0.0+0.0007)/2 $ BFE,ALL,HGEN,1,280.0/4.375000000000001e-07 $ ALLSEL
TIME,4.137585766 $ KBC,1 $ AUTOTS,OFF $ DELTIM,1.25e-05 $ SOLVE
ESEL,S,MAT,,1 $ ESEL,R,CENT,Z,(0.0+0.0007)/2 $ BFE,ALL,HGEN,1,700.0/4.375000000000001e-07 $ ALLSEL
TIME,4.142177644 $ KBC,1 $ AUTOTS,OFF $ DELTIM,0.0005739847500000339 $ SOLVE
ESEL,S,MAT,,1 $ ESEL,R,CENT,Z,(0.0+0.0007)/2 $ BFE,ALL,HGEN,1,84.0/4.375000000000001e-07 $ ALLSEL
TIME,4.151121894 $ KBC,1 $ AUTOTS,OFF $ DELTIM,0.001 $ SOLVE
ESEL,S,MAT,,1 $ ESEL,R,CENT,Z,(0.0+0.0007)/2 $ BFE,ALL,HGEN,1,280.0/4.375000000000001e-07 $ ALLSEL
TIME,4.151243965 $ KBC,1 $ AUTOTS,OFF $ DELTIM,1.5258874999979355e-05 $ SOLVE
ESEL,S,MAT,,1 $ ESEL,R,CENT,Z,(0.0+0.0007)/2 $ BFE,ALL,HGEN,1,140.0/4.375000000000001e-07 $ ALLSEL
TIME,4.151395432 $ KBC,1 $ AUTOTS,OFF $ DELTIM,1.8933375000029784e-05 $ SOLVE
ESEL,S,MAT,,1 $ ESEL,R,CENT,Z,(0.0+0.0007)/2 $ BFE,ALL,HGEN,1,700.0/4.375000000000001e-07 $ ALLSEL
TIME,4.176011364 $ KBC,1 $ AUTOTS,OFF $ DELTIM,0.001 $ SOLVE
ESEL,S,MAT,,1 $ ESEL,R,CENT,Z,(0.0+0.0007)/2 $ BFE,ALL,HGEN,1,84.0/4.375000000000001e-07 $ ALLSEL
TIME,4.224441875 $ KBC,1 $ AUTOTS,OFF $ DELTIM,0.001 $ SOLVE
ESEL,S,MAT,,1 $ ESEL,R,CENT,Z,(0.0+0.0007)/2 $ BFE,ALL,HGEN,1,84.0/4.375000000000001e-07 $ ALLSEL
TIME,4.265107392 $ KBC,1 $ AUTOTS,OFF $ DELTIM,0.001 $ SOLVE
ESEL,S,MAT,,1 $ ESEL,R,CENT,Z,(0.0+0.0007)/2 $ BFE,ALL,HGEN,1,700.0/4.375000000000001e-07 $ ALLSEL
TIME,4.277415358 $ KBC,1 $ AUTOTS,OFF $ DELTIM,0.001 $ SOLVE
ESEL,S,MAT,,1 $ ESEL,R,CENT,Z,(0.0+0.0007)/2 $ BFE,ALL,HGEN,1,140.0/4.375000000000001e-07 $ ALLSEL
TIME,4.277491749 $ KBC,1 $ AUTOTS,OFF $ DELTIM,1.25e-05 $ SOLVE
ESEL,S,MAT,,1 $ ESEL,R,CENT,Z,(0.0+0.0007)/2 $ BFE,ALL,HGEN,1,280.0/4.375000000000001e-07 $ ALLSEL
TIME,4.277555512 $ KBC,1 $ AUTOTS,OFF $ DELTIM,1.25e-05 $ SOLVE
ESEL,S,MAT,,1 $ ESEL,R,CENT,Z,(0.0+0.0007)/2 $ BFE,ALL,HGEN,1,84.0/4.375000000000001e-07 $ ALLSEL
TIME,4.287608378 $ KBC,1 $ AUTOTS,OFF $ DELTIM,0.001 $ SOLVE
ESEL,S,MAT,,1 $ ESEL,R,CENT,Z,(0.0+0.0007)/2 $ BFE,ALL,HGEN,1,280.0/4.375000000000001e-07 $ ALLSEL
TIME,4.289692871 $ KBC,1 $ AUTOTS,OFF $ DELTIM,0.0002605616249999887 $ SOLVE
ESEL,S,MAT,,1 $ ESEL,R,CENT,Z,(0.0+0.0007)/2 $ BFE,ALL,HGEN,1,700.0/4.375000000000001e-07 $ ALLSEL
TIME,4.296448439 $ KBC,1 $ AUTOTS,OFF $ DELTIM,0.0008444459999999987 $ SOLVE
ESEL,S,MAT,,1 $ ESEL,R,CENT,Z,(0.0+0.0007)/2 $ BFE,ALL,HGEN,1,84.0/4.375000000000001e-07 $ ALLSEL
TIME,4.305706537 $ KBC,1 $ AUTOTS,OFF $ DELTIM,0.001 $ SOLVE
ESEL,S,MAT,,1 $ ESEL,R,CENT,Z,(0.0+0.0007)/2 $ BFE,ALL,HGEN,1,140.0/4.375000000000001e-07 $ ALLSEL
TIME,4.305782931 $ KBC,1 $ AUTOTS,OFF $ DELTIM,1.25e-05 $ SOLVE
ESEL,S,MAT,,1 $ ESEL,R,CENT,Z,(0.0+0.0007)/2 $ BFE,ALL,HGEN,1,700.0/4.375000000000001e-07 $ ALLSEL
TIME,4.318090897 $ KBC,1 $ AUTOTS,OFF $ DELTIM,0.001 $ SOLVE
ESEL,S,MAT,,1 $ ESEL,R,CENT,Z,(0.0+0.0007)/2 $ BFE,ALL,HGEN,1,140.0/4.375000000000001e-07 $ ALLSEL
TIME,4.318167287 $ KBC,1 $ AUTOTS,OFF $ DELTIM,1.25e-05 $ SOLVE
ESEL,S,MAT,,1 $ ESEL,R,CENT,Z,(0.0+0.0007)/2 $ BFE,ALL,HGEN,1,280.0/4.375000000000001e-07 $ ALLSEL
TIME,4.318231051 $ KBC,1 $ AUTOTS,OFF $ DELTIM,1.25e-05 $ SOLVE
ESEL,S,MAT,,1 $ ESEL,R,CENT,Z,(0.0+0.0007)/2 $ BFE,ALL,HGEN,1,84.0/4.375000000000001e-07 $ ALLSEL
TIME,4.328283917 $ KBC,1 $ AUTOTS,OFF $ DELTIM,0.001 $ SOLVE
ESEL,S,MAT,,1 $ ESEL,R,CENT,Z,(0.0+0.0007)/2 $ BFE,ALL,HGEN,1,280.0/4.375000000000001e-07 $ ALLSEL
TIME,4.33036841 $ KBC,1 $ AUTOTS,OFF $ DELTIM,0.0002605616249999887 $ SOLVE
ESEL,S,MAT,,1 $ ESEL,R,CENT,Z,(0.0+0.0007)/2 $ BFE,ALL,HGEN,1,700.0/4.375000000000001e-07 $ ALLSEL
TIME,4.337123978 $ KBC,1 $ AUTOTS,OFF $ DELTIM,0.0008444459999999987 $ SOLVE
ESEL,S,MAT,,1 $ ESEL,R,CENT,Z,(0.0+0.0007)/2 $ BFE,ALL,HGEN,1,84.0/4.375000000000001e-07 $ ALLSEL
TIME,4.346382076 $ KBC,1 $ AUTOTS,OFF $ DELTIM,0.001 $ SOLVE
ESEL,S,MAT,,1 $ ESEL,R,CENT,Z,(0.0+0.0007)/2 $ BFE,ALL,HGEN,1,140.0/4.375000000000001e-07 $ ALLSEL
TIME,4.34645847 $ KBC,1 $ AUTOTS,OFF $ DELTIM,1.25e-05 $ SOLVE
ESEL,S,MAT,,1 $ ESEL,R,CENT,Z,(0.0+0.0007)/2 $ BFE,ALL,HGEN,1,700.0/4.375000000000001e-07 $ ALLSEL
TIME,4.358766436 $ KBC,1 $ AUTOTS,OFF $ DELTIM,0.001 $ SOLVE
ESEL,S,MAT,,1 $ ESEL,R,CENT,Z,(0.0+0.0007)/2 $ BFE,ALL,HGEN,1,140.0/4.375000000000001e-07 $ ALLSEL
TIME,4.358842826 $ KBC,1 $ AUTOTS,OFF $ DELTIM,1.25e-05 $ SOLVE
ESEL,S,MAT,,1 $ ESEL,R,CENT,Z,(0.0+0.0007)/2 $ BFE,ALL,HGEN,1,280.0/4.375000000000001e-07 $ ALLSEL
TIME,4.358906589 $ KBC,1 $ AUTOTS,OFF $ DELTIM,1.25e-05 $ SOLVE
ESEL,S,MAT,,1 $ ESEL,R,CENT,Z,(0.0+0.0007)/2 $ BFE,ALL,HGEN,1,84.0/4.375000000000001e-07 $ ALLSEL
TIME,4.368959456 $ KBC,1 $ AUTOTS,OFF $ DELTIM,0.001 $ SOLVE
ESEL,S,MAT,,1 $ ESEL,R,CENT,Z,(0.0+0.0007)/2 $ BFE,ALL,HGEN,1,280.0/4.375000000000001e-07 $ ALLSEL
TIME,4.371043949 $ KBC,1 $ AUTOTS,OFF $ DELTIM,0.0002605616249999887 $ SOLVE
ESEL,S,MAT,,1 $ ESEL,R,CENT,Z,(0.0+0.0007)/2 $ BFE,ALL,HGEN,1,700.0/4.375000000000001e-07 $ ALLSEL
TIME,4.377799517 $ KBC,1 $ AUTOTS,OFF $ DELTIM,0.0008444459999999987 $ SOLVE
ESEL,S,MAT,,1 $ ESEL,R,CENT,Z,(0.0+0.0007)/2 $ BFE,ALL,HGEN,1,84.0/4.375000000000001e-07 $ ALLSEL
TIME,4.387057615 $ KBC,1 $ AUTOTS,OFF $ DELTIM,0.001 $ SOLVE
ESEL,S,MAT,,1 $ ESEL,R,CENT,Z,(0.0+0.0007)/2 $ BFE,ALL,HGEN,1,140.0/4.375000000000001e-07 $ ALLSEL
TIME,4.387134008 $ KBC,1 $ AUTOTS,OFF $ DELTIM,1.25e-05 $ SOLVE
ESEL,S,MAT,,1 $ ESEL,R,CENT,Z,(0.0+0.0007)/2 $ BFE,ALL,HGEN,1,700.0/4.375000000000001e-07 $ ALLSEL
TIME,4.399441974 $ KBC,1 $ AUTOTS,OFF $ DELTIM,0.001 $ SOLVE
ESEL,S,MAT,,1 $ ESEL,R,CENT,Z,(0.0+0.0007)/2 $ BFE,ALL,HGEN,1,140.0/4.375000000000001e-07 $ ALLSEL
TIME,4.399518365 $ KBC,1 $ AUTOTS,OFF $ DELTIM,1.25e-05 $ SOLVE
ESEL,S,MAT,,1 $ ESEL,R,CENT,Z,(0.0+0.0007)/2 $ BFE,ALL,HGEN,1,280.0/4.375000000000001e-07 $ ALLSEL
TIME,4.399571773 $ KBC,1 $ AUTOTS,OFF $ DELTIM,1.25e-05 $ SOLVE
ESEL,S,MAT,,1 $ ESEL,R,CENT,Z,(0.0+0.0007)/2 $ BFE,ALL,HGEN,1,280.0/4.375000000000001e-07 $ ALLSEL
TIME,4.399582128 $ KBC,1 $ AUTOTS,OFF $ DELTIM,1.25e-05 $ SOLVE
ESEL,S,MAT,,1 $ ESEL,R,CENT,Z,(0.0+0.0007)/2 $ BFE,ALL,HGEN,1,84.0/4.375000000000001e-07 $ ALLSEL
TIME,4.409624639 $ KBC,1 $ AUTOTS,OFF $ DELTIM,0.001 $ SOLVE
ESEL,S,MAT,,1 $ ESEL,R,CENT,Z,(0.0+0.0007)/2 $ BFE,ALL,HGEN,1,280.0/4.375000000000001e-07 $ ALLSEL
TIME,4.411709132 $ KBC,1 $ AUTOTS,OFF $ DELTIM,0.0002605616250000997 $ SOLVE
ESEL,S,MAT,,1 $ ESEL,R,CENT,Z,(0.0+0.0007)/2 $ BFE,ALL,HGEN,1,700.0/4.375000000000001e-07 $ ALLSEL
TIME,4.4184647 $ KBC,1 $ AUTOTS,OFF $ DELTIM,0.0008444459999999987 $ SOLVE
ESEL,S,MAT,,1 $ ESEL,R,CENT,Z,(0.0+0.0007)/2 $ BFE,ALL,HGEN,1,84.0/4.375000000000001e-07 $ ALLSEL
TIME,4.427722715 $ KBC,1 $ AUTOTS,OFF $ DELTIM,0.001 $ SOLVE
ESEL,S,MAT,,1 $ ESEL,R,CENT,Z,(0.0+0.0007)/2 $ BFE,ALL,HGEN,1,140.0/4.375000000000001e-07 $ ALLSEL
TIME,4.427799108 $ KBC,1 $ AUTOTS,OFF $ DELTIM,1.25e-05 $ SOLVE
ESEL,S,MAT,,1 $ ESEL,R,CENT,Z,(0.0+0.0007)/2 $ BFE,ALL,HGEN,1,84.0/4.375000000000001e-07 $ ALLSEL
TIME,4.528372513 $ KBC,1 $ AUTOTS,OFF $ DELTIM,0.001 $ SOLVE
ESEL,S,MAT,,1 $ ESEL,R,CENT,Z,(0.0+0.0007)/2 $ BFE,ALL,HGEN,1,140.0/4.375000000000001e-07 $ ALLSEL
TIME,4.52852399 $ KBC,1 $ AUTOTS,OFF $ DELTIM,1.8934625000022187e-05 $ SOLVE
ESEL,S,MAT,,1 $ ESEL,R,CENT,Z,(0.0+0.0007)/2 $ BFE,ALL,HGEN,1,280.0/4.375000000000001e-07 $ ALLSEL
TIME,4.528527411 $ KBC,1 $ AUTOTS,OFF $ DELTIM,1.25e-05 $ SOLVE
ESEL,S,MAT,,1 $ ESEL,R,CENT,Z,(0.0+0.0007)/2 $ BFE,ALL,HGEN,1,84.0/4.375000000000001e-07 $ ALLSEL
TIME,4.538576856 $ KBC,1 $ AUTOTS,OFF $ DELTIM,0.001 $ SOLVE
ESEL,S,MAT,,1 $ ESEL,R,CENT,Z,(0.0+0.0007)/2 $ BFE,ALL,HGEN,1,280.0/4.375000000000001e-07 $ ALLSEL
TIME,4.538668351 $ KBC,1 $ AUTOTS,OFF $ DELTIM,1.25e-05 $ SOLVE
ESEL,S,MAT,,1 $ ESEL,R,CENT,Z,(0.0+0.0007)/2 $ BFE,ALL,HGEN,1,700.0/4.375000000000001e-07 $ ALLSEL
TIME,4.543260229 $ KBC,1 $ AUTOTS,OFF $ DELTIM,0.0005739847500000339 $ SOLVE
ESEL,S,MAT,,1 $ ESEL,R,CENT,Z,(0.0+0.0007)/2 $ BFE,ALL,HGEN,1,84.0/4.375000000000001e-07 $ ALLSEL
TIME,4.552211956 $ KBC,1 $ AUTOTS,OFF $ DELTIM,0.001 $ SOLVE
ESEL,S,MAT,,1 $ ESEL,R,CENT,Z,(0.0+0.0007)/2 $ BFE,ALL,HGEN,1,280.0/4.375000000000001e-07 $ ALLSEL
TIME,4.552334027 $ KBC,1 $ AUTOTS,OFF $ DELTIM,1.5258874999979355e-05 $ SOLVE
ESEL,S,MAT,,1 $ ESEL,R,CENT,Z,(0.0+0.0007)/2 $ BFE,ALL,HGEN,1,140.0/4.375000000000001e-07 $ ALLSEL
TIME,4.552485494 $ KBC,1 $ AUTOTS,OFF $ DELTIM,1.8933375000029784e-05 $ SOLVE
ESEL,S,MAT,,1 $ ESEL,R,CENT,Z,(0.0+0.0007)/2 $ BFE,ALL,HGEN,1,700.0/4.375000000000001e-07 $ ALLSEL
TIME,4.577101426 $ KBC,1 $ AUTOTS,OFF $ DELTIM,0.001 $ SOLVE
ESEL,S,MAT,,1 $ ESEL,R,CENT,Z,(0.0+0.0007)/2 $ BFE,ALL,HGEN,1,84.0/4.375000000000001e-07 $ ALLSEL
TIME,4.580815581 $ KBC,1 $ AUTOTS,OFF $ DELTIM,0.0004642693750001037 $ SOLVE
ESEL,S,MAT,,1 $ ESEL,R,CENT,Z,(0.0+0.0007)/2 $ BFE,ALL,HGEN,1,140.0/4.375000000000001e-07 $ ALLSEL
TIME,4.580967058 $ KBC,1 $ AUTOTS,OFF $ DELTIM,1.8934624999911165e-05 $ SOLVE
ESEL,S,MAT,,1 $ ESEL,R,CENT,Z,(0.0+0.0007)/2 $ BFE,ALL,HGEN,1,280.0/4.375000000000001e-07 $ ALLSEL
TIME,4.580970479 $ KBC,1 $ AUTOTS,OFF $ DELTIM,1.25e-05 $ SOLVE
ESEL,S,MAT,,1 $ ESEL,R,CENT,Z,(0.0+0.0007)/2 $ BFE,ALL,HGEN,1,84.0/4.375000000000001e-07 $ ALLSEL
TIME,4.591019924 $ KBC,1 $ AUTOTS,OFF $ DELTIM,0.001 $ SOLVE
ESEL,S,MAT,,1 $ ESEL,R,CENT,Z,(0.0+0.0007)/2 $ BFE,ALL,HGEN,1,280.0/4.375000000000001e-07 $ ALLSEL
TIME,4.591111418 $ KBC,1 $ AUTOTS,OFF $ DELTIM,1.25e-05 $ SOLVE
ESEL,S,MAT,,1 $ ESEL,R,CENT,Z,(0.0+0.0007)/2 $ BFE,ALL,HGEN,1,700.0/4.375000000000001e-07 $ ALLSEL
TIME,4.595703297 $ KBC,1 $ AUTOTS,OFF $ DELTIM,0.0005739848750000442 $ SOLVE
ESEL,S,MAT,,1 $ ESEL,R,CENT,Z,(0.0+0.0007)/2 $ BFE,ALL,HGEN,1,84.0/4.375000000000001e-07 $ ALLSEL
TIME,4.604548285 $ KBC,1 $ AUTOTS,OFF $ DELTIM,0.001 $ SOLVE
ESEL,S,MAT,,1 $ ESEL,R,CENT,Z,(0.0+0.0007)/2 $ BFE,ALL,HGEN,1,280.0/4.375000000000001e-07 $ ALLSEL
TIME,4.604670356 $ KBC,1 $ AUTOTS,OFF $ DELTIM,1.5258874999979355e-05 $ SOLVE
ESEL,S,MAT,,1 $ ESEL,R,CENT,Z,(0.0+0.0007)/2 $ BFE,ALL,HGEN,1,140.0/4.375000000000001e-07 $ ALLSEL
TIME,4.604821823 $ KBC,1 $ AUTOTS,OFF $ DELTIM,1.8933375000029784e-05 $ SOLVE
ESEL,S,MAT,,1 $ ESEL,R,CENT,Z,(0.0+0.0007)/2 $ BFE,ALL,HGEN,1,700.0/4.375000000000001e-07 $ ALLSEL
TIME,4.629437755 $ KBC,1 $ AUTOTS,OFF $ DELTIM,0.001 $ SOLVE
ESEL,S,MAT,,1 $ ESEL,R,CENT,Z,(0.0+0.0007)/2 $ BFE,ALL,HGEN,1,84.0/4.375000000000001e-07 $ ALLSEL
TIME,4.674433716 $ KBC,1 $ AUTOTS,OFF $ DELTIM,0.001 $ SOLVE
ESEL,S,MAT,,1 $ ESEL,R,CENT,Z,(0.0+0.0007)/2 $ BFE,ALL,HGEN,1,140.0/4.375000000000001e-07 $ ALLSEL
TIME,4.674585194 $ KBC,1 $ AUTOTS,OFF $ DELTIM,1.8934749999921507e-05 $ SOLVE
ESEL,S,MAT,,1 $ ESEL,R,CENT,Z,(0.0+0.0007)/2 $ BFE,ALL,HGEN,1,280.0/4.375000000000001e-07 $ ALLSEL
TIME,4.674588614 $ KBC,1 $ AUTOTS,OFF $ DELTIM,1.25e-05 $ SOLVE
ESEL,S,MAT,,1 $ ESEL,R,CENT,Z,(0.0+0.0007)/2 $ BFE,ALL,HGEN,1,84.0/4.375000000000001e-07 $ ALLSEL
TIME,4.68463806 $ KBC,1 $ AUTOTS,OFF $ DELTIM,0.001 $ SOLVE
ESEL,S,MAT,,1 $ ESEL,R,CENT,Z,(0.0+0.0007)/2 $ BFE,ALL,HGEN,1,280.0/4.375000000000001e-07 $ ALLSEL
TIME,4.684729554 $ KBC,1 $ AUTOTS,OFF $ DELTIM,1.25e-05 $ SOLVE
ESEL,S,MAT,,1 $ ESEL,R,CENT,Z,(0.0+0.0007)/2 $ BFE,ALL,HGEN,1,700.0/4.375000000000001e-07 $ ALLSEL
TIME,4.689321433 $ KBC,1 $ AUTOTS,OFF $ DELTIM,0.0005739848750000442 $ SOLVE
ESEL,S,MAT,,1 $ ESEL,R,CENT,Z,(0.0+0.0007)/2 $ BFE,ALL,HGEN,1,84.0/4.375000000000001e-07 $ ALLSEL
TIME,4.698216094 $ KBC,1 $ AUTOTS,OFF $ DELTIM,0.001 $ SOLVE
ESEL,S,MAT,,1 $ ESEL,R,CENT,Z,(0.0+0.0007)/2 $ BFE,ALL,HGEN,1,280.0/4.375000000000001e-07 $ ALLSEL
TIME,4.698338164 $ KBC,1 $ AUTOTS,OFF $ DELTIM,1.5258749999969012e-05 $ SOLVE
ESEL,S,MAT,,1 $ ESEL,R,CENT,Z,(0.0+0.0007)/2 $ BFE,ALL,HGEN,1,140.0/4.375000000000001e-07 $ ALLSEL
TIME,4.698489632 $ KBC,1 $ AUTOTS,OFF $ DELTIM,1.8933500000040127e-05 $ SOLVE
ESEL,S,MAT,,1 $ ESEL,R,CENT,Z,(0.0+0.0007)/2 $ BFE,ALL,HGEN,1,700.0/4.375000000000001e-07 $ ALLSEL
TIME,4.723105563 $ KBC,1 $ AUTOTS,OFF $ DELTIM,0.001 $ SOLVE
ESEL,S,MAT,,1 $ ESEL,R,CENT,Z,(0.0+0.0007)/2 $ BFE,ALL,HGEN,1,84.0/4.375000000000001e-07 $ ALLSEL
TIME,4.730781624 $ KBC,1 $ AUTOTS,OFF $ DELTIM,0.0009595076249999668 $ SOLVE
ESEL,S,MAT,,1 $ ESEL,R,CENT,Z,(0.0+0.0007)/2 $ BFE,ALL,HGEN,1,140.0/4.375000000000001e-07 $ ALLSEL
TIME,4.730933101 $ KBC,1 $ AUTOTS,OFF $ DELTIM,1.8934625000022187e-05 $ SOLVE
ESEL,S,MAT,,1 $ ESEL,R,CENT,Z,(0.0+0.0007)/2 $ BFE,ALL,HGEN,1,280.0/4.375000000000001e-07 $ ALLSEL
TIME,4.730936522 $ KBC,1 $ AUTOTS,OFF $ DELTIM,1.25e-05 $ SOLVE
ESEL,S,MAT,,1 $ ESEL,R,CENT,Z,(0.0+0.0007)/2 $ BFE,ALL,HGEN,1,84.0/4.375000000000001e-07 $ ALLSEL
TIME,4.740985968 $ KBC,1 $ AUTOTS,OFF $ DELTIM,0.001 $ SOLVE
ESEL,S,MAT,,1 $ ESEL,R,CENT,Z,(0.0+0.0007)/2 $ BFE,ALL,HGEN,1,280.0/4.375000000000001e-07 $ ALLSEL
TIME,4.741077462 $ KBC,1 $ AUTOTS,OFF $ DELTIM,1.25e-05 $ SOLVE
ESEL,S,MAT,,1 $ ESEL,R,CENT,Z,(0.0+0.0007)/2 $ BFE,ALL,HGEN,1,700.0/4.375000000000001e-07 $ ALLSEL
TIME,4.74566934 $ KBC,1 $ AUTOTS,OFF $ DELTIM,0.0005739847500000339 $ SOLVE
ESEL,S,MAT,,1 $ ESEL,R,CENT,Z,(0.0+0.0007)/2 $ BFE,ALL,HGEN,1,84.0/4.375000000000001e-07 $ ALLSEL
TIME,4.754613591 $ KBC,1 $ AUTOTS,OFF $ DELTIM,0.001 $ SOLVE
ESEL,S,MAT,,1 $ ESEL,R,CENT,Z,(0.0+0.0007)/2 $ BFE,ALL,HGEN,1,280.0/4.375000000000001e-07 $ ALLSEL
TIME,4.754735661 $ KBC,1 $ AUTOTS,OFF $ DELTIM,1.5258749999969012e-05 $ SOLVE
ESEL,S,MAT,,1 $ ESEL,R,CENT,Z,(0.0+0.0007)/2 $ BFE,ALL,HGEN,1,140.0/4.375000000000001e-07 $ ALLSEL
TIME,4.754887129 $ KBC,1 $ AUTOTS,OFF $ DELTIM,1.8933500000040127e-05 $ SOLVE
ESEL,S,MAT,,1 $ ESEL,R,CENT,Z,(0.0+0.0007)/2 $ BFE,ALL,HGEN,1,700.0/4.375000000000001e-07 $ ALLSEL
TIME,4.77950306 $ KBC,1 $ AUTOTS,OFF $ DELTIM,0.001 $ SOLVE
ESEL,S,MAT,,1 $ ESEL,R,CENT,Z,(0.0+0.0007)/2 $ BFE,ALL,HGEN,1,84.0/4.375000000000001e-07 $ ALLSEL
TIME,4.827933571 $ KBC,1 $ AUTOTS,OFF $ DELTIM,0.001 $ SOLVE
ESEL,S,MAT,,1 $ ESEL,R,CENT,Z,(0.0+0.0007)/2 $ BFE,ALL,HGEN,1,84.0/4.375000000000001e-07 $ ALLSEL
TIME,4.868599088 $ KBC,1 $ AUTOTS,OFF $ DELTIM,0.001 $ SOLVE
ESEL,S,MAT,,1 $ ESEL,R,CENT,Z,(0.0+0.0007)/2 $ BFE,ALL,HGEN,1,700.0/4.375000000000001e-07 $ ALLSEL
TIME,4.880907054 $ KBC,1 $ AUTOTS,OFF $ DELTIM,0.001 $ SOLVE
ESEL,S,MAT,,1 $ ESEL,R,CENT,Z,(0.0+0.0007)/2 $ BFE,ALL,HGEN,1,140.0/4.375000000000001e-07 $ ALLSEL
TIME,4.880983445 $ KBC,1 $ AUTOTS,OFF $ DELTIM,1.25e-05 $ SOLVE
ESEL,S,MAT,,1 $ ESEL,R,CENT,Z,(0.0+0.0007)/2 $ BFE,ALL,HGEN,1,280.0/4.375000000000001e-07 $ ALLSEL
TIME,4.881047208 $ KBC,1 $ AUTOTS,OFF $ DELTIM,1.25e-05 $ SOLVE
ESEL,S,MAT,,1 $ ESEL,R,CENT,Z,(0.0+0.0007)/2 $ BFE,ALL,HGEN,1,84.0/4.375000000000001e-07 $ ALLSEL
TIME,4.891100075 $ KBC,1 $ AUTOTS,OFF $ DELTIM,0.001 $ SOLVE
ESEL,S,MAT,,1 $ ESEL,R,CENT,Z,(0.0+0.0007)/2 $ BFE,ALL,HGEN,1,280.0/4.375000000000001e-07 $ ALLSEL
TIME,4.893184567 $ KBC,1 $ AUTOTS,OFF $ DELTIM,0.00026056149999997835 $ SOLVE
ESEL,S,MAT,,1 $ ESEL,R,CENT,Z,(0.0+0.0007)/2 $ BFE,ALL,HGEN,1,700.0/4.375000000000001e-07 $ ALLSEL
TIME,4.899940135 $ KBC,1 $ AUTOTS,OFF $ DELTIM,0.0008444459999999987 $ SOLVE
ESEL,S,MAT,,1 $ ESEL,R,CENT,Z,(0.0+0.0007)/2 $ BFE,ALL,HGEN,1,84.0/4.375000000000001e-07 $ ALLSEL
TIME,4.909198234 $ KBC,1 $ AUTOTS,OFF $ DELTIM,0.001 $ SOLVE
ESEL,S,MAT,,1 $ ESEL,R,CENT,Z,(0.0+0.0007)/2 $ BFE,ALL,HGEN,1,140.0/4.375000000000001e-07 $ ALLSEL
TIME,4.909274627 $ KBC,1 $ AUTOTS,OFF $ DELTIM,1.25e-05 $ SOLVE
ESEL,S,MAT,,1 $ ESEL,R,CENT,Z,(0.0+0.0007)/2 $ BFE,ALL,HGEN,1,700.0/4.375000000000001e-07 $ ALLSEL
TIME,4.921582593 $ KBC,1 $ AUTOTS,OFF $ DELTIM,0.001 $ SOLVE
ESEL,S,MAT,,1 $ ESEL,R,CENT,Z,(0.0+0.0007)/2 $ BFE,ALL,HGEN,1,140.0/4.375000000000001e-07 $ ALLSEL
TIME,4.921658984 $ KBC,1 $ AUTOTS,OFF $ DELTIM,1.25e-05 $ SOLVE
ESEL,S,MAT,,1 $ ESEL,R,CENT,Z,(0.0+0.0007)/2 $ BFE,ALL,HGEN,1,280.0/4.375000000000001e-07 $ ALLSEL
TIME,4.921722747 $ KBC,1 $ AUTOTS,OFF $ DELTIM,1.25e-05 $ SOLVE
ESEL,S,MAT,,1 $ ESEL,R,CENT,Z,(0.0+0.0007)/2 $ BFE,ALL,HGEN,1,84.0/4.375000000000001e-07 $ ALLSEL
TIME,4.931775613 $ KBC,1 $ AUTOTS,OFF $ DELTIM,0.001 $ SOLVE
ESEL,S,MAT,,1 $ ESEL,R,CENT,Z,(0.0+0.0007)/2 $ BFE,ALL,HGEN,1,280.0/4.375000000000001e-07 $ ALLSEL
TIME,4.933860106 $ KBC,1 $ AUTOTS,OFF $ DELTIM,0.0002605616249999887 $ SOLVE
ESEL,S,MAT,,1 $ ESEL,R,CENT,Z,(0.0+0.0007)/2 $ BFE,ALL,HGEN,1,700.0/4.375000000000001e-07 $ ALLSEL
TIME,4.940615674 $ KBC,1 $ AUTOTS,OFF $ DELTIM,0.0008444459999999987 $ SOLVE
ESEL,S,MAT,,1 $ ESEL,R,CENT,Z,(0.0+0.0007)/2 $ BFE,ALL,HGEN,1,84.0/4.375000000000001e-07 $ ALLSEL
TIME,4.949873773 $ KBC,1 $ AUTOTS,OFF $ DELTIM,0.001 $ SOLVE
ESEL,S,MAT,,1 $ ESEL,R,CENT,Z,(0.0+0.0007)/2 $ BFE,ALL,HGEN,1,140.0/4.375000000000001e-07 $ ALLSEL
TIME,4.949950166 $ KBC,1 $ AUTOTS,OFF $ DELTIM,1.25e-05 $ SOLVE
ESEL,S,MAT,,1 $ ESEL,R,CENT,Z,(0.0+0.0007)/2 $ BFE,ALL,HGEN,1,700.0/4.375000000000001e-07 $ ALLSEL
TIME,4.962258132 $ KBC,1 $ AUTOTS,OFF $ DELTIM,0.001 $ SOLVE
ESEL,S,MAT,,1 $ ESEL,R,CENT,Z,(0.0+0.0007)/2 $ BFE,ALL,HGEN,1,140.0/4.375000000000001e-07 $ ALLSEL
TIME,4.962334523 $ KBC,1 $ AUTOTS,OFF $ DELTIM,1.25e-05 $ SOLVE
ESEL,S,MAT,,1 $ ESEL,R,CENT,Z,(0.0+0.0007)/2 $ BFE,ALL,HGEN,1,280.0/4.375000000000001e-07 $ ALLSEL
TIME,4.962398286 $ KBC,1 $ AUTOTS,OFF $ DELTIM,1.25e-05 $ SOLVE
ESEL,S,MAT,,1 $ ESEL,R,CENT,Z,(0.0+0.0007)/2 $ BFE,ALL,HGEN,1,84.0/4.375000000000001e-07 $ ALLSEL
TIME,4.972451152 $ KBC,1 $ AUTOTS,OFF $ DELTIM,0.001 $ SOLVE
ESEL,S,MAT,,1 $ ESEL,R,CENT,Z,(0.0+0.0007)/2 $ BFE,ALL,HGEN,1,280.0/4.375000000000001e-07 $ ALLSEL
TIME,4.974535645 $ KBC,1 $ AUTOTS,OFF $ DELTIM,0.0002605616249999887 $ SOLVE
ESEL,S,MAT,,1 $ ESEL,R,CENT,Z,(0.0+0.0007)/2 $ BFE,ALL,HGEN,1,700.0/4.375000000000001e-07 $ ALLSEL
TIME,4.981291213 $ KBC,1 $ AUTOTS,OFF $ DELTIM,0.0008444460000001097 $ SOLVE
ESEL,S,MAT,,1 $ ESEL,R,CENT,Z,(0.0+0.0007)/2 $ BFE,ALL,HGEN,1,84.0/4.375000000000001e-07 $ ALLSEL
TIME,4.990549312 $ KBC,1 $ AUTOTS,OFF $ DELTIM,0.001 $ SOLVE
ESEL,S,MAT,,1 $ ESEL,R,CENT,Z,(0.0+0.0007)/2 $ BFE,ALL,HGEN,1,140.0/4.375000000000001e-07 $ ALLSEL
TIME,4.990625705 $ KBC,1 $ AUTOTS,OFF $ DELTIM,1.25e-05 $ SOLVE
ESEL,S,MAT,,1 $ ESEL,R,CENT,Z,(0.0+0.0007)/2 $ BFE,ALL,HGEN,1,700.0/4.375000000000001e-07 $ ALLSEL
TIME,5.002933671 $ KBC,1 $ AUTOTS,OFF $ DELTIM,0.001 $ SOLVE
ESEL,S,MAT,,1 $ ESEL,R,CENT,Z,(0.0+0.0007)/2 $ BFE,ALL,HGEN,1,140.0/4.375000000000001e-07 $ ALLSEL
TIME,5.003010062 $ KBC,1 $ AUTOTS,OFF $ DELTIM,1.25e-05 $ SOLVE
ESEL,S,MAT,,1 $ ESEL,R,CENT,Z,(0.0+0.0007)/2 $ BFE,ALL,HGEN,1,280.0/4.375000000000001e-07 $ ALLSEL
TIME,5.00306347 $ KBC,1 $ AUTOTS,OFF $ DELTIM,1.25e-05 $ SOLVE
ESEL,S,MAT,,1 $ ESEL,R,CENT,Z,(0.0+0.0007)/2 $ BFE,ALL,HGEN,1,280.0/4.375000000000001e-07 $ ALLSEL
TIME,5.003073825 $ KBC,1 $ AUTOTS,OFF $ DELTIM,1.25e-05 $ SOLVE
ESEL,S,MAT,,1 $ ESEL,R,CENT,Z,(0.0+0.0007)/2 $ BFE,ALL,HGEN,1,84.0/4.375000000000001e-07 $ ALLSEL
TIME,5.013116336 $ KBC,1 $ AUTOTS,OFF $ DELTIM,0.001 $ SOLVE
ESEL,S,MAT,,1 $ ESEL,R,CENT,Z,(0.0+0.0007)/2 $ BFE,ALL,HGEN,1,280.0/4.375000000000001e-07 $ ALLSEL
TIME,5.015200829 $ KBC,1 $ AUTOTS,OFF $ DELTIM,0.0002605616249999887 $ SOLVE
ESEL,S,MAT,,1 $ ESEL,R,CENT,Z,(0.0+0.0007)/2 $ BFE,ALL,HGEN,1,700.0/4.375000000000001e-07 $ ALLSEL
TIME,5.021956397 $ KBC,1 $ AUTOTS,OFF $ DELTIM,0.0008444459999999987 $ SOLVE
ESEL,S,MAT,,1 $ ESEL,R,CENT,Z,(0.0+0.0007)/2 $ BFE,ALL,HGEN,1,84.0/4.375000000000001e-07 $ ALLSEL
TIME,5.031214412 $ KBC,1 $ AUTOTS,OFF $ DELTIM,0.001 $ SOLVE
ESEL,S,MAT,,1 $ ESEL,R,CENT,Z,(0.0+0.0007)/2 $ BFE,ALL,HGEN,1,140.0/4.375000000000001e-07 $ ALLSEL
TIME,5.031290805 $ KBC,1 $ AUTOTS,OFF $ DELTIM,1.25e-05 $ SOLVE
ESEL,S,MAT,,1 $ ESEL,R,CENT,Z,(0.0+0.0007)/2 $ BFE,ALL,HGEN,1,84.0/4.375000000000001e-07 $ ALLSEL
TIME,5.131864209 $ KBC,1 $ AUTOTS,OFF $ DELTIM,0.001 $ SOLVE
ESEL,S,MAT,,1 $ ESEL,R,CENT,Z,(0.0+0.0007)/2 $ BFE,ALL,HGEN,1,140.0/4.375000000000001e-07 $ ALLSEL
TIME,5.132015687 $ KBC,1 $ AUTOTS,OFF $ DELTIM,1.893475000003253e-05 $ SOLVE
ESEL,S,MAT,,1 $ ESEL,R,CENT,Z,(0.0+0.0007)/2 $ BFE,ALL,HGEN,1,280.0/4.375000000000001e-07 $ ALLSEL
TIME,5.132019107 $ KBC,1 $ AUTOTS,OFF $ DELTIM,1.25e-05 $ SOLVE
ESEL,S,MAT,,1 $ ESEL,R,CENT,Z,(0.0+0.0007)/2 $ BFE,ALL,HGEN,1,84.0/4.375000000000001e-07 $ ALLSEL
TIME,5.142068553 $ KBC,1 $ AUTOTS,OFF $ DELTIM,0.001 $ SOLVE
ESEL,S,MAT,,1 $ ESEL,R,CENT,Z,(0.0+0.0007)/2 $ BFE,ALL,HGEN,1,280.0/4.375000000000001e-07 $ ALLSEL
TIME,5.142160047 $ KBC,1 $ AUTOTS,OFF $ DELTIM,1.25e-05 $ SOLVE
ESEL,S,MAT,,1 $ ESEL,R,CENT,Z,(0.0+0.0007)/2 $ BFE,ALL,HGEN,1,700.0/4.375000000000001e-07 $ ALLSEL
TIME,5.146751926 $ KBC,1 $ AUTOTS,OFF $ DELTIM,0.0005739848750000442 $ SOLVE
ESEL,S,MAT,,1 $ ESEL,R,CENT,Z,(0.0+0.0007)/2 $ BFE,ALL,HGEN,1,84.0/4.375000000000001e-07 $ ALLSEL
TIME,5.155703653 $ KBC,1 $ AUTOTS,OFF $ DELTIM,0.001 $ SOLVE
ESEL,S,MAT,,1 $ ESEL,R,CENT,Z,(0.0+0.0007)/2 $ BFE,ALL,HGEN,1,280.0/4.375000000000001e-07 $ ALLSEL
TIME,5.155825723 $ KBC,1 $ AUTOTS,OFF $ DELTIM,1.5258750000080035e-05 $ SOLVE
ESEL,S,MAT,,1 $ ESEL,R,CENT,Z,(0.0+0.0007)/2 $ BFE,ALL,HGEN,1,140.0/4.375000000000001e-07 $ ALLSEL
TIME,5.15597719 $ KBC,1 $ AUTOTS,OFF $ DELTIM,1.8933374999918762e-05 $ SOLVE
ESEL,S,MAT,,1 $ ESEL,R,CENT,Z,(0.0+0.0007)/2 $ BFE,ALL,HGEN,1,700.0/4.375000000000001e-07 $ ALLSEL
TIME,5.180593122 $ KBC,1 $ AUTOTS,OFF $ DELTIM,0.001 $ SOLVE
ESEL,S,MAT,,1 $ ESEL,R,CENT,Z,(0.0+0.0007)/2 $ BFE,ALL,HGEN,1,84.0/4.375000000000001e-07 $ ALLSEL
TIME,5.184307277 $ KBC,1 $ AUTOTS,OFF $ DELTIM,0.00046426937499999266 $ SOLVE
ESEL,S,MAT,,1 $ ESEL,R,CENT,Z,(0.0+0.0007)/2 $ BFE,ALL,HGEN,1,140.0/4.375000000000001e-07 $ ALLSEL
TIME,5.184458754 $ KBC,1 $ AUTOTS,OFF $ DELTIM,1.8934624999911165e-05 $ SOLVE
ESEL,S,MAT,,1 $ ESEL,R,CENT,Z,(0.0+0.0007)/2 $ BFE,ALL,HGEN,1,280.0/4.375000000000001e-07 $ ALLSEL
TIME,5.184462175 $ KBC,1 $ AUTOTS,OFF $ DELTIM,1.25e-05 $ SOLVE
ESEL,S,MAT,,1 $ ESEL,R,CENT,Z,(0.0+0.0007)/2 $ BFE,ALL,HGEN,1,84.0/4.375000000000001e-07 $ ALLSEL
TIME,5.19451162 $ KBC,1 $ AUTOTS,OFF $ DELTIM,0.001 $ SOLVE
ESEL,S,MAT,,1 $ ESEL,R,CENT,Z,(0.0+0.0007)/2 $ BFE,ALL,HGEN,1,280.0/4.375000000000001e-07 $ ALLSEL
TIME,5.194603115 $ KBC,1 $ AUTOTS,OFF $ DELTIM,1.25e-05 $ SOLVE
ESEL,S,MAT,,1 $ ESEL,R,CENT,Z,(0.0+0.0007)/2 $ BFE,ALL,HGEN,1,700.0/4.375000000000001e-07 $ ALLSEL
TIME,5.199194993 $ KBC,1 $ AUTOTS,OFF $ DELTIM,0.0005739847500000339 $ SOLVE
ESEL,S,MAT,,1 $ ESEL,R,CENT,Z,(0.0+0.0007)/2 $ BFE,ALL,HGEN,1,84.0/4.375000000000001e-07 $ ALLSEL
TIME,5.208039982 $ KBC,1 $ AUTOTS,OFF $ DELTIM,0.001 $ SOLVE
ESEL,S,MAT,,1 $ ESEL,R,CENT,Z,(0.0+0.0007)/2 $ BFE,ALL,HGEN,1,280.0/4.375000000000001e-07 $ ALLSEL
TIME,5.208162052 $ KBC,1 $ AUTOTS,OFF $ DELTIM,1.5258749999969012e-05 $ SOLVE
ESEL,S,MAT,,1 $ ESEL,R,CENT,Z,(0.0+0.0007)/2 $ BFE,ALL,HGEN,1,140.0/4.375000000000001e-07 $ ALLSEL
TIME,5.208313519 $ KBC,1 $ AUTOTS,OFF $ DELTIM,1.8933375000029784e-05 $ SOLVE
ESEL,S,MAT,,1 $ ESEL,R,CENT,Z,(0.0+0.0007)/2 $ BFE,ALL,HGEN,1,700.0/4.375000000000001e-07 $ ALLSEL
TIME,5.232929451 $ KBC,1 $ AUTOTS,OFF $ DELTIM,0.001 $ SOLVE
ESEL,S,MAT,,1 $ ESEL,R,CENT,Z,(0.0+0.0007)/2 $ BFE,ALL,HGEN,1,84.0/4.375000000000001e-07 $ ALLSEL
TIME,5.277925413 $ KBC,1 $ AUTOTS,OFF $ DELTIM,0.001 $ SOLVE
ESEL,S,MAT,,1 $ ESEL,R,CENT,Z,(0.0+0.0007)/2 $ BFE,ALL,HGEN,1,140.0/4.375000000000001e-07 $ ALLSEL
TIME,5.27807689 $ KBC,1 $ AUTOTS,OFF $ DELTIM,1.8934625000022187e-05 $ SOLVE
ESEL,S,MAT,,1 $ ESEL,R,CENT,Z,(0.0+0.0007)/2 $ BFE,ALL,HGEN,1,280.0/4.375000000000001e-07 $ ALLSEL
TIME,5.278080311 $ KBC,1 $ AUTOTS,OFF $ DELTIM,1.25e-05 $ SOLVE
ESEL,S,MAT,,1 $ ESEL,R,CENT,Z,(0.0+0.0007)/2 $ BFE,ALL,HGEN,1,84.0/4.375000000000001e-07 $ ALLSEL
TIME,5.288129756 $ KBC,1 $ AUTOTS,OFF $ DELTIM,0.001 $ SOLVE
ESEL,S,MAT,,1 $ ESEL,R,CENT,Z,(0.0+0.0007)/2 $ BFE,ALL,HGEN,1,280.0/4.375000000000001e-07 $ ALLSEL
TIME,5.288221251 $ KBC,1 $ AUTOTS,OFF $ DELTIM,1.25e-05 $ SOLVE
ESEL,S,MAT,,1 $ ESEL,R,CENT,Z,(0.0+0.0007)/2 $ BFE,ALL,HGEN,1,700.0/4.375000000000001e-07 $ ALLSEL
TIME,5.292813129 $ KBC,1 $ AUTOTS,OFF $ DELTIM,0.0005739847499999229 $ SOLVE
ESEL,S,MAT,,1 $ ESEL,R,CENT,Z,(0.0+0.0007)/2 $ BFE,ALL,HGEN,1,84.0/4.375000000000001e-07 $ ALLSEL
TIME,5.30170779 $ KBC,1 $ AUTOTS,OFF $ DELTIM,0.001 $ SOLVE
ESEL,S,MAT,,1 $ ESEL,R,CENT,Z,(0.0+0.0007)/2 $ BFE,ALL,HGEN,1,280.0/4.375000000000001e-07 $ ALLSEL
TIME,5.301829861 $ KBC,1 $ AUTOTS,OFF $ DELTIM,1.5258874999979355e-05 $ SOLVE
ESEL,S,MAT,,1 $ ESEL,R,CENT,Z,(0.0+0.0007)/2 $ BFE,ALL,HGEN,1,140.0/4.375000000000001e-07 $ ALLSEL
TIME,5.301981328 $ KBC,1 $ AUTOTS,OFF $ DELTIM,1.8933375000029784e-05 $ SOLVE
ESEL,S,MAT,,1 $ ESEL,R,CENT,Z,(0.0+0.0007)/2 $ BFE,ALL,HGEN,1,700.0/4.375000000000001e-07 $ ALLSEL
TIME,5.32659726 $ KBC,1 $ AUTOTS,OFF $ DELTIM,0.001 $ SOLVE
ESEL,S,MAT,,1 $ ESEL,R,CENT,Z,(0.0+0.0007)/2 $ BFE,ALL,HGEN,1,84.0/4.375000000000001e-07 $ ALLSEL
TIME,5.334273321 $ KBC,1 $ AUTOTS,OFF $ DELTIM,0.0009595076250000778 $ SOLVE
ESEL,S,MAT,,1 $ ESEL,R,CENT,Z,(0.0+0.0007)/2 $ BFE,ALL,HGEN,1,140.0/4.375000000000001e-07 $ ALLSEL
TIME,5.334424798 $ KBC,1 $ AUTOTS,OFF $ DELTIM,1.8934624999911165e-05 $ SOLVE
ESEL,S,MAT,,1 $ ESEL,R,CENT,Z,(0.0+0.0007)/2 $ BFE,ALL,HGEN,1,280.0/4.375000000000001e-07 $ ALLSEL
TIME,5.334428219 $ KBC,1 $ AUTOTS,OFF $ DELTIM,1.25e-05 $ SOLVE
ESEL,S,MAT,,1 $ ESEL,R,CENT,Z,(0.0+0.0007)/2 $ BFE,ALL,HGEN,1,84.0/4.375000000000001e-07 $ ALLSEL
TIME,5.344477664 $ KBC,1 $ AUTOTS,OFF $ DELTIM,0.001 $ SOLVE
ESEL,S,MAT,,1 $ ESEL,R,CENT,Z,(0.0+0.0007)/2 $ BFE,ALL,HGEN,1,280.0/4.375000000000001e-07 $ ALLSEL
TIME,5.344569158 $ KBC,1 $ AUTOTS,OFF $ DELTIM,1.25e-05 $ SOLVE
ESEL,S,MAT,,1 $ ESEL,R,CENT,Z,(0.0+0.0007)/2 $ BFE,ALL,HGEN,1,700.0/4.375000000000001e-07 $ ALLSEL
TIME,5.349161037 $ KBC,1 $ AUTOTS,OFF $ DELTIM,0.0005739848750000442 $ SOLVE
ESEL,S,MAT,,1 $ ESEL,R,CENT,Z,(0.0+0.0007)/2 $ BFE,ALL,HGEN,1,84.0/4.375000000000001e-07 $ ALLSEL
TIME,5.358105287 $ KBC,1 $ AUTOTS,OFF $ DELTIM,0.001 $ SOLVE
ESEL,S,MAT,,1 $ ESEL,R,CENT,Z,(0.0+0.0007)/2 $ BFE,ALL,HGEN,1,280.0/4.375000000000001e-07 $ ALLSEL
TIME,5.358227358 $ KBC,1 $ AUTOTS,OFF $ DELTIM,1.5258874999979355e-05 $ SOLVE
ESEL,S,MAT,,1 $ ESEL,R,CENT,Z,(0.0+0.0007)/2 $ BFE,ALL,HGEN,1,140.0/4.375000000000001e-07 $ ALLSEL
TIME,5.358378825 $ KBC,1 $ AUTOTS,OFF $ DELTIM,1.8933375000029784e-05 $ SOLVE
ESEL,S,MAT,,1 $ ESEL,R,CENT,Z,(0.0+0.0007)/2 $ BFE,ALL,HGEN,1,700.0/4.375000000000001e-07 $ ALLSEL
TIME,5.382994757 $ KBC,1 $ AUTOTS,OFF $ DELTIM,0.001 $ SOLVE
ESEL,S,MAT,,1 $ ESEL,R,CENT,Z,(0.0+0.0007)/2 $ BFE,ALL,HGEN,1,84.0/4.375000000000001e-07 $ ALLSEL
TIME,5.431425268 $ KBC,1 $ AUTOTS,OFF $ DELTIM,0.001 $ SOLVE
ESEL,S,MAT,,1 $ ESEL,R,CENT,Z,(0.0+0.0007)/2 $ BFE,ALL,HGEN,1,84.0/4.375000000000001e-07 $ ALLSEL
TIME,5.472090785 $ KBC,1 $ AUTOTS,OFF $ DELTIM,0.001 $ SOLVE
ESEL,S,MAT,,1 $ ESEL,R,CENT,Z,(0.0+0.0007)/2 $ BFE,ALL,HGEN,1,700.0/4.375000000000001e-07 $ ALLSEL
TIME,5.484398751 $ KBC,1 $ AUTOTS,OFF $ DELTIM,0.001 $ SOLVE
ESEL,S,MAT,,1 $ ESEL,R,CENT,Z,(0.0+0.0007)/2 $ BFE,ALL,HGEN,1,140.0/4.375000000000001e-07 $ ALLSEL
TIME,5.484475141 $ KBC,1 $ AUTOTS,OFF $ DELTIM,1.25e-05 $ SOLVE
ESEL,S,MAT,,1 $ ESEL,R,CENT,Z,(0.0+0.0007)/2 $ BFE,ALL,HGEN,1,280.0/4.375000000000001e-07 $ ALLSEL
TIME,5.484538905 $ KBC,1 $ AUTOTS,OFF $ DELTIM,1.25e-05 $ SOLVE
ESEL,S,MAT,,1 $ ESEL,R,CENT,Z,(0.0+0.0007)/2 $ BFE,ALL,HGEN,1,84.0/4.375000000000001e-07 $ ALLSEL
TIME,5.494591771 $ KBC,1 $ AUTOTS,OFF $ DELTIM,0.001 $ SOLVE
ESEL,S,MAT,,1 $ ESEL,R,CENT,Z,(0.0+0.0007)/2 $ BFE,ALL,HGEN,1,280.0/4.375000000000001e-07 $ ALLSEL
TIME,5.496676264 $ KBC,1 $ AUTOTS,OFF $ DELTIM,0.0002605616250000997 $ SOLVE
ESEL,S,MAT,,1 $ ESEL,R,CENT,Z,(0.0+0.0007)/2 $ BFE,ALL,HGEN,1,700.0/4.375000000000001e-07 $ ALLSEL
TIME,5.503431832 $ KBC,1 $ AUTOTS,OFF $ DELTIM,0.0008444459999999987 $ SOLVE
ESEL,S,MAT,,1 $ ESEL,R,CENT,Z,(0.0+0.0007)/2 $ BFE,ALL,HGEN,1,84.0/4.375000000000001e-07 $ ALLSEL
TIME,5.51268993 $ KBC,1 $ AUTOTS,OFF $ DELTIM,0.001 $ SOLVE
ESEL,S,MAT,,1 $ ESEL,R,CENT,Z,(0.0+0.0007)/2 $ BFE,ALL,HGEN,1,140.0/4.375000000000001e-07 $ ALLSEL
TIME,5.512766324 $ KBC,1 $ AUTOTS,OFF $ DELTIM,1.25e-05 $ SOLVE
ESEL,S,MAT,,1 $ ESEL,R,CENT,Z,(0.0+0.0007)/2 $ BFE,ALL,HGEN,1,700.0/4.375000000000001e-07 $ ALLSEL
TIME,5.52507429 $ KBC,1 $ AUTOTS,OFF $ DELTIM,0.001 $ SOLVE
ESEL,S,MAT,,1 $ ESEL,R,CENT,Z,(0.0+0.0007)/2 $ BFE,ALL,HGEN,1,140.0/4.375000000000001e-07 $ ALLSEL
TIME,5.52515068 $ KBC,1 $ AUTOTS,OFF $ DELTIM,1.25e-05 $ SOLVE
ESEL,S,MAT,,1 $ ESEL,R,CENT,Z,(0.0+0.0007)/2 $ BFE,ALL,HGEN,1,280.0/4.375000000000001e-07 $ ALLSEL
TIME,5.525214443 $ KBC,1 $ AUTOTS,OFF $ DELTIM,1.25e-05 $ SOLVE
ESEL,S,MAT,,1 $ ESEL,R,CENT,Z,(0.0+0.0007)/2 $ BFE,ALL,HGEN,1,84.0/4.375000000000001e-07 $ ALLSEL
TIME,5.53526731 $ KBC,1 $ AUTOTS,OFF $ DELTIM,0.001 $ SOLVE
ESEL,S,MAT,,1 $ ESEL,R,CENT,Z,(0.0+0.0007)/2 $ BFE,ALL,HGEN,1,280.0/4.375000000000001e-07 $ ALLSEL
TIME,5.537351803 $ KBC,1 $ AUTOTS,OFF $ DELTIM,0.0002605616249999887 $ SOLVE
ESEL,S,MAT,,1 $ ESEL,R,CENT,Z,(0.0+0.0007)/2 $ BFE,ALL,HGEN,1,700.0/4.375000000000001e-07 $ ALLSEL
TIME,5.544107371 $ KBC,1 $ AUTOTS,OFF $ DELTIM,0.0008444459999999987 $ SOLVE
ESEL,S,MAT,,1 $ ESEL,R,CENT,Z,(0.0+0.0007)/2 $ BFE,ALL,HGEN,1,84.0/4.375000000000001e-07 $ ALLSEL
TIME,5.553365469 $ KBC,1 $ AUTOTS,OFF $ DELTIM,0.001 $ SOLVE
ESEL,S,MAT,,1 $ ESEL,R,CENT,Z,(0.0+0.0007)/2 $ BFE,ALL,HGEN,1,140.0/4.375000000000001e-07 $ ALLSEL
TIME,5.553441862 $ KBC,1 $ AUTOTS,OFF $ DELTIM,1.25e-05 $ SOLVE
ESEL,S,MAT,,1 $ ESEL,R,CENT,Z,(0.0+0.0007)/2 $ BFE,ALL,HGEN,1,700.0/4.375000000000001e-07 $ ALLSEL
TIME,5.565749828 $ KBC,1 $ AUTOTS,OFF $ DELTIM,0.001 $ SOLVE
ESEL,S,MAT,,1 $ ESEL,R,CENT,Z,(0.0+0.0007)/2 $ BFE,ALL,HGEN,1,140.0/4.375000000000001e-07 $ ALLSEL
TIME,5.565826219 $ KBC,1 $ AUTOTS,OFF $ DELTIM,1.25e-05 $ SOLVE
ESEL,S,MAT,,1 $ ESEL,R,CENT,Z,(0.0+0.0007)/2 $ BFE,ALL,HGEN,1,280.0/4.375000000000001e-07 $ ALLSEL
TIME,5.565889982 $ KBC,1 $ AUTOTS,OFF $ DELTIM,1.25e-05 $ SOLVE
ESEL,S,MAT,,1 $ ESEL,R,CENT,Z,(0.0+0.0007)/2 $ BFE,ALL,HGEN,1,84.0/4.375000000000001e-07 $ ALLSEL
TIME,5.575942849 $ KBC,1 $ AUTOTS,OFF $ DELTIM,0.001 $ SOLVE
ESEL,S,MAT,,1 $ ESEL,R,CENT,Z,(0.0+0.0007)/2 $ BFE,ALL,HGEN,1,280.0/4.375000000000001e-07 $ ALLSEL
TIME,5.578027341 $ KBC,1 $ AUTOTS,OFF $ DELTIM,0.0002605615000000894 $ SOLVE
ESEL,S,MAT,,1 $ ESEL,R,CENT,Z,(0.0+0.0007)/2 $ BFE,ALL,HGEN,1,700.0/4.375000000000001e-07 $ ALLSEL
TIME,5.58478291 $ KBC,1 $ AUTOTS,OFF $ DELTIM,0.000844446125000009 $ SOLVE
ESEL,S,MAT,,1 $ ESEL,R,CENT,Z,(0.0+0.0007)/2 $ BFE,ALL,HGEN,1,84.0/4.375000000000001e-07 $ ALLSEL
TIME,5.594041008 $ KBC,1 $ AUTOTS,OFF $ DELTIM,0.001 $ SOLVE
ESEL,S,MAT,,1 $ ESEL,R,CENT,Z,(0.0+0.0007)/2 $ BFE,ALL,HGEN,1,140.0/4.375000000000001e-07 $ ALLSEL
TIME,5.594117401 $ KBC,1 $ AUTOTS,OFF $ DELTIM,1.25e-05 $ SOLVE
ESEL,S,MAT,,1 $ ESEL,R,CENT,Z,(0.0+0.0007)/2 $ BFE,ALL,HGEN,1,700.0/4.375000000000001e-07 $ ALLSEL
TIME,5.606425367 $ KBC,1 $ AUTOTS,OFF $ DELTIM,0.001 $ SOLVE
ESEL,S,MAT,,1 $ ESEL,R,CENT,Z,(0.0+0.0007)/2 $ BFE,ALL,HGEN,1,140.0/4.375000000000001e-07 $ ALLSEL
TIME,5.606501758 $ KBC,1 $ AUTOTS,OFF $ DELTIM,1.25e-05 $ SOLVE
ESEL,S,MAT,,1 $ ESEL,R,CENT,Z,(0.0+0.0007)/2 $ BFE,ALL,HGEN,1,280.0/4.375000000000001e-07 $ ALLSEL
TIME,5.606555166 $ KBC,1 $ AUTOTS,OFF $ DELTIM,1.25e-05 $ SOLVE
ESEL,S,MAT,,1 $ ESEL,R,CENT,Z,(0.0+0.0007)/2 $ BFE,ALL,HGEN,1,280.0/4.375000000000001e-07 $ ALLSEL
TIME,5.606565521 $ KBC,1 $ AUTOTS,OFF $ DELTIM,1.25e-05 $ SOLVE
ESEL,S,MAT,,1 $ ESEL,R,CENT,Z,(0.0+0.0007)/2 $ BFE,ALL,HGEN,1,84.0/4.375000000000001e-07 $ ALLSEL
TIME,5.616608032 $ KBC,1 $ AUTOTS,OFF $ DELTIM,0.001 $ SOLVE
ESEL,S,MAT,,1 $ ESEL,R,CENT,Z,(0.0+0.0007)/2 $ BFE,ALL,HGEN,1,280.0/4.375000000000001e-07 $ ALLSEL
TIME,5.618692525 $ KBC,1 $ AUTOTS,OFF $ DELTIM,0.0002605616249999887 $ SOLVE
ESEL,S,MAT,,1 $ ESEL,R,CENT,Z,(0.0+0.0007)/2 $ BFE,ALL,HGEN,1,700.0/4.375000000000001e-07 $ ALLSEL
TIME,5.625448093 $ KBC,1 $ AUTOTS,OFF $ DELTIM,0.0008444459999999987 $ SOLVE
ESEL,S,MAT,,1 $ ESEL,R,CENT,Z,(0.0+0.0007)/2 $ BFE,ALL,HGEN,1,84.0/4.375000000000001e-07 $ ALLSEL
TIME,5.634706108 $ KBC,1 $ AUTOTS,OFF $ DELTIM,0.001 $ SOLVE
ESEL,S,MAT,,1 $ ESEL,R,CENT,Z,(0.0+0.0007)/2 $ BFE,ALL,HGEN,1,140.0/4.375000000000001e-07 $ ALLSEL
TIME,5.634782501 $ KBC,1 $ AUTOTS,OFF $ DELTIM,1.25e-05 $ SOLVE
ESEL,S,MAT,,1 $ ESEL,R,CENT,Z,(0.0+0.0007)/2 $ BFE,ALL,HGEN,1,84.0/4.375000000000001e-07 $ ALLSEL
TIME,5.735355906 $ KBC,1 $ AUTOTS,OFF $ DELTIM,0.001 $ SOLVE
ESEL,S,MAT,,1 $ ESEL,R,CENT,Z,(0.0+0.0007)/2 $ BFE,ALL,HGEN,1,140.0/4.375000000000001e-07 $ ALLSEL
TIME,5.735507383 $ KBC,1 $ AUTOTS,OFF $ DELTIM,1.8934625000022187e-05 $ SOLVE
ESEL,S,MAT,,1 $ ESEL,R,CENT,Z,(0.0+0.0007)/2 $ BFE,ALL,HGEN,1,280.0/4.375000000000001e-07 $ ALLSEL
TIME,5.735510804 $ KBC,1 $ AUTOTS,OFF $ DELTIM,1.25e-05 $ SOLVE
ESEL,S,MAT,,1 $ ESEL,R,CENT,Z,(0.0+0.0007)/2 $ BFE,ALL,HGEN,1,84.0/4.375000000000001e-07 $ ALLSEL
TIME,5.745560249 $ KBC,1 $ AUTOTS,OFF $ DELTIM,0.001 $ SOLVE
ESEL,S,MAT,,1 $ ESEL,R,CENT,Z,(0.0+0.0007)/2 $ BFE,ALL,HGEN,1,280.0/4.375000000000001e-07 $ ALLSEL
TIME,5.745651744 $ KBC,1 $ AUTOTS,OFF $ DELTIM,1.25e-05 $ SOLVE
ESEL,S,MAT,,1 $ ESEL,R,CENT,Z,(0.0+0.0007)/2 $ BFE,ALL,HGEN,1,700.0/4.375000000000001e-07 $ ALLSEL
TIME,5.750243622 $ KBC,1 $ AUTOTS,OFF $ DELTIM,0.0005739847500000339 $ SOLVE
ESEL,S,MAT,,1 $ ESEL,R,CENT,Z,(0.0+0.0007)/2 $ BFE,ALL,HGEN,1,84.0/4.375000000000001e-07 $ ALLSEL
TIME,5.759195349 $ KBC,1 $ AUTOTS,OFF $ DELTIM,0.001 $ SOLVE
ESEL,S,MAT,,1 $ ESEL,R,CENT,Z,(0.0+0.0007)/2 $ BFE,ALL,HGEN,1,280.0/4.375000000000001e-07 $ ALLSEL
TIME,5.75931742 $ KBC,1 $ AUTOTS,OFF $ DELTIM,1.5258875000090377e-05 $ SOLVE
ESEL,S,MAT,,1 $ ESEL,R,CENT,Z,(0.0+0.0007)/2 $ BFE,ALL,HGEN,1,140.0/4.375000000000001e-07 $ ALLSEL
TIME,5.759468887 $ KBC,1 $ AUTOTS,OFF $ DELTIM,1.8933374999918762e-05 $ SOLVE
ESEL,S,MAT,,1 $ ESEL,R,CENT,Z,(0.0+0.0007)/2 $ BFE,ALL,HGEN,1,700.0/4.375000000000001e-07 $ ALLSEL
TIME,5.784084819 $ KBC,1 $ AUTOTS,OFF $ DELTIM,0.001 $ SOLVE
ESEL,S,MAT,,1 $ ESEL,R,CENT,Z,(0.0+0.0007)/2 $ BFE,ALL,HGEN,1,84.0/4.375000000000001e-07 $ ALLSEL
TIME,5.787798974 $ KBC,1 $ AUTOTS,OFF $ DELTIM,0.00046426937499999266 $ SOLVE
ESEL,S,MAT,,1 $ ESEL,R,CENT,Z,(0.0+0.0007)/2 $ BFE,ALL,HGEN,1,140.0/4.375000000000001e-07 $ ALLSEL
TIME,5.787950451 $ KBC,1 $ AUTOTS,OFF $ DELTIM,1.8934625000022187e-05 $ SOLVE
ESEL,S,MAT,,1 $ ESEL,R,CENT,Z,(0.0+0.0007)/2 $ BFE,ALL,HGEN,1,280.0/4.375000000000001e-07 $ ALLSEL
TIME,5.787953871 $ KBC,1 $ AUTOTS,OFF $ DELTIM,1.25e-05 $ SOLVE
ESEL,S,MAT,,1 $ ESEL,R,CENT,Z,(0.0+0.0007)/2 $ BFE,ALL,HGEN,1,84.0/4.375000000000001e-07 $ ALLSEL
TIME,5.798003317 $ KBC,1 $ AUTOTS,OFF $ DELTIM,0.001 $ SOLVE
ESEL,S,MAT,,1 $ ESEL,R,CENT,Z,(0.0+0.0007)/2 $ BFE,ALL,HGEN,1,280.0/4.375000000000001e-07 $ ALLSEL
TIME,5.798094811 $ KBC,1 $ AUTOTS,OFF $ DELTIM,1.25e-05 $ SOLVE
ESEL,S,MAT,,1 $ ESEL,R,CENT,Z,(0.0+0.0007)/2 $ BFE,ALL,HGEN,1,700.0/4.375000000000001e-07 $ ALLSEL
TIME,5.80268669 $ KBC,1 $ AUTOTS,OFF $ DELTIM,0.0005739848749999332 $ SOLVE
ESEL,S,MAT,,1 $ ESEL,R,CENT,Z,(0.0+0.0007)/2 $ BFE,ALL,HGEN,1,84.0/4.375000000000001e-07 $ ALLSEL
TIME,5.811531678 $ KBC,1 $ AUTOTS,OFF $ DELTIM,0.001 $ SOLVE
ESEL,S,MAT,,1 $ ESEL,R,CENT,Z,(0.0+0.0007)/2 $ BFE,ALL,HGEN,1,280.0/4.375000000000001e-07 $ ALLSEL
TIME,5.811653749 $ KBC,1 $ AUTOTS,OFF $ DELTIM,1.5258875000090377e-05 $ SOLVE
ESEL,S,MAT,,1 $ ESEL,R,CENT,Z,(0.0+0.0007)/2 $ BFE,ALL,HGEN,1,140.0/4.375000000000001e-07 $ ALLSEL
TIME,5.811805216 $ KBC,1 $ AUTOTS,OFF $ DELTIM,1.8933374999918762e-05 $ SOLVE
ESEL,S,MAT,,1 $ ESEL,R,CENT,Z,(0.0+0.0007)/2 $ BFE,ALL,HGEN,1,700.0/4.375000000000001e-07 $ ALLSEL
TIME,5.836421148 $ KBC,1 $ AUTOTS,OFF $ DELTIM,0.001 $ SOLVE
ESEL,S,MAT,,1 $ ESEL,R,CENT,Z,(0.0+0.0007)/2 $ BFE,ALL,HGEN,1,84.0/4.375000000000001e-07 $ ALLSEL
TIME,5.881417109 $ KBC,1 $ AUTOTS,OFF $ DELTIM,0.001 $ SOLVE
ESEL,S,MAT,,1 $ ESEL,R,CENT,Z,(0.0+0.0007)/2 $ BFE,ALL,HGEN,1,140.0/4.375000000000001e-07 $ ALLSEL
TIME,5.881568586 $ KBC,1 $ AUTOTS,OFF $ DELTIM,1.8934625000022187e-05 $ SOLVE
ESEL,S,MAT,,1 $ ESEL,R,CENT,Z,(0.0+0.0007)/2 $ BFE,ALL,HGEN,1,280.0/4.375000000000001e-07 $ ALLSEL
TIME,5.881572007 $ KBC,1 $ AUTOTS,OFF $ DELTIM,1.25e-05 $ SOLVE
ESEL,S,MAT,,1 $ ESEL,R,CENT,Z,(0.0+0.0007)/2 $ BFE,ALL,HGEN,1,84.0/4.375000000000001e-07 $ ALLSEL
TIME,5.891621453 $ KBC,1 $ AUTOTS,OFF $ DELTIM,0.001 $ SOLVE
ESEL,S,MAT,,1 $ ESEL,R,CENT,Z,(0.0+0.0007)/2 $ BFE,ALL,HGEN,1,280.0/4.375000000000001e-07 $ ALLSEL
TIME,5.891712947 $ KBC,1 $ AUTOTS,OFF $ DELTIM,1.25e-05 $ SOLVE
ESEL,S,MAT,,1 $ ESEL,R,CENT,Z,(0.0+0.0007)/2 $ BFE,ALL,HGEN,1,700.0/4.375000000000001e-07 $ ALLSEL
TIME,5.896304825 $ KBC,1 $ AUTOTS,OFF $ DELTIM,0.0005739847499999229 $ SOLVE
ESEL,S,MAT,,1 $ ESEL,R,CENT,Z,(0.0+0.0007)/2 $ BFE,ALL,HGEN,1,84.0/4.375000000000001e-07 $ ALLSEL
TIME,5.905199487 $ KBC,1 $ AUTOTS,OFF $ DELTIM,0.001 $ SOLVE
ESEL,S,MAT,,1 $ ESEL,R,CENT,Z,(0.0+0.0007)/2 $ BFE,ALL,HGEN,1,280.0/4.375000000000001e-07 $ ALLSEL
TIME,5.905321557 $ KBC,1 $ AUTOTS,OFF $ DELTIM,1.5258749999969012e-05 $ SOLVE
ESEL,S,MAT,,1 $ ESEL,R,CENT,Z,(0.0+0.0007)/2 $ BFE,ALL,HGEN,1,140.0/4.375000000000001e-07 $ ALLSEL
TIME,5.905473024 $ KBC,1 $ AUTOTS,OFF $ DELTIM,1.8933375000029784e-05 $ SOLVE
ESEL,S,MAT,,1 $ ESEL,R,CENT,Z,(0.0+0.0007)/2 $ BFE,ALL,HGEN,1,700.0/4.375000000000001e-07 $ ALLSEL
TIME,5.930088956 $ KBC,1 $ AUTOTS,OFF $ DELTIM,0.001 $ SOLVE
ESEL,S,MAT,,1 $ ESEL,R,CENT,Z,(0.0+0.0007)/2 $ BFE,ALL,HGEN,1,84.0/4.375000000000001e-07 $ ALLSEL
TIME,5.937765017 $ KBC,1 $ AUTOTS,OFF $ DELTIM,0.0009595076250000778 $ SOLVE
ESEL,S,MAT,,1 $ ESEL,R,CENT,Z,(0.0+0.0007)/2 $ BFE,ALL,HGEN,1,140.0/4.375000000000001e-07 $ ALLSEL
TIME,5.937916494 $ KBC,1 $ AUTOTS,OFF $ DELTIM,1.8934625000022187e-05 $ SOLVE
ESEL,S,MAT,,1 $ ESEL,R,CENT,Z,(0.0+0.0007)/2 $ BFE,ALL,HGEN,1,280.0/4.375000000000001e-07 $ ALLSEL
TIME,5.937919915 $ KBC,1 $ AUTOTS,OFF $ DELTIM,1.25e-05 $ SOLVE
ESEL,S,MAT,,1 $ ESEL,R,CENT,Z,(0.0+0.0007)/2 $ BFE,ALL,HGEN,1,84.0/4.375000000000001e-07 $ ALLSEL
TIME,5.947969361 $ KBC,1 $ AUTOTS,OFF $ DELTIM,0.001 $ SOLVE
ESEL,S,MAT,,1 $ ESEL,R,CENT,Z,(0.0+0.0007)/2 $ BFE,ALL,HGEN,1,280.0/4.375000000000001e-07 $ ALLSEL
TIME,5.948060855 $ KBC,1 $ AUTOTS,OFF $ DELTIM,1.25e-05 $ SOLVE
ESEL,S,MAT,,1 $ ESEL,R,CENT,Z,(0.0+0.0007)/2 $ BFE,ALL,HGEN,1,700.0/4.375000000000001e-07 $ ALLSEL
TIME,5.952652733 $ KBC,1 $ AUTOTS,OFF $ DELTIM,0.0005739847500000339 $ SOLVE
ESEL,S,MAT,,1 $ ESEL,R,CENT,Z,(0.0+0.0007)/2 $ BFE,ALL,HGEN,1,84.0/4.375000000000001e-07 $ ALLSEL
TIME,5.961596984 $ KBC,1 $ AUTOTS,OFF $ DELTIM,0.001 $ SOLVE
ESEL,S,MAT,,1 $ ESEL,R,CENT,Z,(0.0+0.0007)/2 $ BFE,ALL,HGEN,1,280.0/4.375000000000001e-07 $ ALLSEL
TIME,5.961719054 $ KBC,1 $ AUTOTS,OFF $ DELTIM,1.5258749999969012e-05 $ SOLVE
ESEL,S,MAT,,1 $ ESEL,R,CENT,Z,(0.0+0.0007)/2 $ BFE,ALL,HGEN,1,140.0/4.375000000000001e-07 $ ALLSEL
TIME,5.961870521 $ KBC,1 $ AUTOTS,OFF $ DELTIM,1.8933375000029784e-05 $ SOLVE
ESEL,S,MAT,,1 $ ESEL,R,CENT,Z,(0.0+0.0007)/2 $ BFE,ALL,HGEN,1,700.0/4.375000000000001e-07 $ ALLSEL
TIME,5.986486453 $ KBC,1 $ AUTOTS,OFF $ DELTIM,0.001 $ SOLVE
ESEL,S,MAT,,1 $ ESEL,R,CENT,Z,(0.0+0.0007)/2 $ BFE,ALL,HGEN,1,84.0/4.375000000000001e-07 $ ALLSEL
TIME,6.034916964 $ KBC,1 $ AUTOTS,OFF $ DELTIM,0.001 $ SOLVE
FINISH

/POST26
NUMVAR,200
NSOL,2,NMON,TEMP
/OUTPUT,llama_pic_transient_loop2_i256_median_dt1ms,csv
PRVAR,2
/OUTPUT
FINISH
