/PREP7
! ===== ICCAD2026 OIO3D GPU/EIC/aPIC transient (Coenen et al. TCPMT 2026 params) =====
MP,KXX,1,150.0 $ MP,KYY,1,150.0 $ MP,KZZ,1,150.0 $ MP,DENS,1,2330 $ MP,C,1,700
MP,KXX,2,5.0 $ MP,KYY,2,5.0 $ MP,KZZ,2,5.0 $ MP,DENS,2,2500 $ MP,C,2,800
MP,KXX,3,80.0 $ MP,KYY,3,80.0 $ MP,KZZ,3,80.0 $ MP,DENS,3,2300 $ MP,C,3,700
MP,KXX,4,2.55 $ MP,KYY,4,2.55 $ MP,KZZ,4,2.55 $ MP,DENS,4,2500 $ MP,C,4,800
ET,1,SOLID70
ESIZE,0.025/20
BLOCK,0,0.025,0,0.025,0.0,0.0007 $ VSEL,S,LOC,Z,(0.0+0.0007)/2 $ VATT,1,,1 $ VMESH,ALL $ ALLSEL
BLOCK,0,0.025,0,0.025,0.0007,0.0007023999999999999 $ VSEL,S,LOC,Z,(0.0007+0.0007023999999999999)/2 $ VATT,2,,1 $ VMESH,ALL $ ALLSEL
BLOCK,0,0.025,0,0.025,0.0007023999999999999,0.0008024 $ VSEL,S,LOC,Z,(0.0007023999999999999+0.0008024)/2 $ VATT,1,,1 $ VMESH,ALL $ ALLSEL
BLOCK,0,0.025,0,0.025,0.0008024,0.0008047999999999999 $ VSEL,S,LOC,Z,(0.0008024+0.0008047999999999999)/2 $ VATT,2,,1 $ VMESH,ALL $ ALLSEL
BLOCK,0,0.025,0,0.025,0.0008047999999999999,0.0008548 $ VSEL,S,LOC,Z,(0.0008047999999999999+0.0008548)/2 $ VATT,3,,1 $ VMESH,ALL $ ALLSEL
BLOCK,0,0.025,0,0.025,0.0008548,0.0008571999999999999 $ VSEL,S,LOC,Z,(0.0008548+0.0008571999999999999)/2 $ VATT,4,,1 $ VMESH,ALL $ ALLSEL
BLOCK,0,0.025,0,0.025,0.0008571999999999999,0.0011572 $ VSEL,S,LOC,Z,(0.0008571999999999999+0.0011572)/2 $ VATT,1,,1 $ VMESH,ALL $ ALLSEL
ALLSEL $ NUMMRG,NODE,1e-9 $ NUMCMP,NODE
VOL_XPU=4.375000000000001e-07
ESEL,S,MAT,,1 $ ESEL,R,CENT,Z,(0.0007023999999999999+0.0008024)/2 $ BFE,ALL,HGEN,1,266.25/6.250000000000001e-08 $ ALLSEL
ESEL,S,MAT,,3 $ BFE,ALL,HGEN,1,70.625/3.1250000000000005e-08 $ ALLSEL
ASEL,S,LOC,Z,0.0 $ SFA,ALL,,CONV,70000.0,45.0 $ ALLSEL
ASEL,S,LOC,Z,0.0011572 $ SFA,ALL,,CONV,16000.0000,45.0 $ ALLSEL
NMON=NODE(0.025/2,0.025/2,(0.0008047999999999999+0.0008548)/2)
FINISH

/SOLU
ANTYPE,TRANS
TRNOPT,FULL
OUTRES,ALL,ALL
TIMINT,OFF
ESEL,S,MAT,,1 $ ESEL,R,CENT,Z,(0.0+0.0007)/2 $ BFE,ALL,HGEN,1,700.0/4.375000000000001e-07 $ ALLSEL
TIME,1e-3 $ KBC,1 $ SOLVE
TIMINT,ON
ESEL,S,MAT,,1 $ ESEL,R,CENT,Z,(0.0+0.0007)/2 $ BFE,ALL,HGEN,1,700.0/4.375000000000001e-07 $ ALLSEL
TIME,0.146893039 $ KBC,1 $ AUTOTS,ON $ DELTIM,0.018361629875,0.0018361629875,0.0734465195 $ SOLVE
ESEL,S,MAT,,1 $ ESEL,R,CENT,Z,(0.0+0.0007)/2 $ BFE,ALL,HGEN,1,280.0/4.375000000000001e-07 $ ALLSEL
TIME,0.147960546 $ KBC,1 $ AUTOTS,ON $ DELTIM,0.00013343837499999942,1.334383749999994e-05,0.0005337534999999977 $ SOLVE
ESEL,S,MAT,,1 $ ESEL,R,CENT,Z,(0.0+0.0007)/2 $ BFE,ALL,HGEN,1,84.0/4.375000000000001e-07 $ ALLSEL
TIME,0.497963083 $ KBC,1 $ AUTOTS,ON $ DELTIM,0.04375031712499999,0.0043750317125,0.17500126849999997 $ SOLVE
ESEL,S,MAT,,1 $ ESEL,R,CENT,Z,(0.0+0.0007)/2 $ BFE,ALL,HGEN,1,700.0/4.375000000000001e-07 $ ALLSEL
TIME,0.768995582 $ KBC,1 $ AUTOTS,ON $ DELTIM,0.033879062375,0.0033879062374999997,0.1355162495 $ SOLVE
ESEL,S,MAT,,1 $ ESEL,R,CENT,Z,(0.0+0.0007)/2 $ BFE,ALL,HGEN,1,84.0/4.375000000000001e-07 $ ALLSEL
TIME,1.118998119 $ KBC,1 $ AUTOTS,ON $ DELTIM,0.04375031712500001,0.0043750317125000006,0.17500126850000003 $ SOLVE
ESEL,S,MAT,,1 $ ESEL,R,CENT,Z,(0.0+0.0007)/2 $ BFE,ALL,HGEN,1,140.0/4.375000000000001e-07 $ ALLSEL
TIME,1.120189583 $ KBC,1 $ AUTOTS,ON $ DELTIM,0.00014893299999999,1.4893299999998999e-05,0.00059573199999996 $ SOLVE
ESEL,S,MAT,,1 $ ESEL,R,CENT,Z,(0.0+0.0007)/2 $ BFE,ALL,HGEN,1,140.0/4.375000000000001e-07 $ ALLSEL
TIME,1.122563239 $ KBC,1 $ AUTOTS,ON $ DELTIM,0.00029670700000000716,2.9670700000000715e-05,0.0011868280000000286 $ SOLVE
ESEL,S,MAT,,1 $ ESEL,R,CENT,Z,(0.0+0.0007)/2 $ BFE,ALL,HGEN,1,84.0/4.375000000000001e-07 $ ALLSEL
TIME,1.472565776 $ KBC,1 $ AUTOTS,ON $ DELTIM,0.04375031712499999,0.0043750317125,0.17500126849999997 $ SOLVE
ESEL,S,MAT,,1 $ ESEL,R,CENT,Z,(0.0+0.0007)/2 $ BFE,ALL,HGEN,1,700.0/4.375000000000001e-07 $ ALLSEL
TIME,1.784992182 $ KBC,1 $ AUTOTS,ON $ DELTIM,0.03905330075000002,0.003905330075000002,0.15621320300000008 $ SOLVE
ESEL,S,MAT,,1 $ ESEL,R,CENT,Z,(0.0+0.0007)/2 $ BFE,ALL,HGEN,1,84.0/4.375000000000001e-07 $ ALLSEL
TIME,2.134994719 $ KBC,1 $ AUTOTS,ON $ DELTIM,0.043750317124999966,0.004375031712499996,0.17500126849999986 $ SOLVE
ESEL,S,MAT,,1 $ ESEL,R,CENT,Z,(0.0+0.0007)/2 $ BFE,ALL,HGEN,1,280.0/4.375000000000001e-07 $ ALLSEL
TIME,2.136537794 $ KBC,1 $ AUTOTS,ON $ DELTIM,0.0001928843750000353,1.928843750000353e-05,0.0007715375000001412 $ SOLVE
ESEL,S,MAT,,1 $ ESEL,R,CENT,Z,(0.0+0.0007)/2 $ BFE,ALL,HGEN,1,700.0/4.375000000000001e-07 $ ALLSEL
TIME,2.286686797 $ KBC,1 $ AUTOTS,ON $ DELTIM,0.018768625375000014,0.0018768625375000015,0.07507450150000006 $ SOLVE
ESEL,S,MAT,,1 $ ESEL,R,CENT,Z,(0.0+0.0007)/2 $ BFE,ALL,HGEN,1,700.0/4.375000000000001e-07 $ ALLSEL
TIME,2.433579836 $ KBC,1 $ AUTOTS,ON $ DELTIM,0.018361629874999952,0.001836162987499995,0.07344651949999981 $ SOLVE
ESEL,S,MAT,,1 $ ESEL,R,CENT,Z,(0.0+0.0007)/2 $ BFE,ALL,HGEN,1,280.0/4.375000000000001e-07 $ ALLSEL
TIME,2.434647344 $ KBC,1 $ AUTOTS,ON $ DELTIM,0.0001334385000000271,1.334385000000271e-05,0.0005337540000001084 $ SOLVE
ESEL,S,MAT,,1 $ ESEL,R,CENT,Z,(0.0+0.0007)/2 $ BFE,ALL,HGEN,1,84.0/4.375000000000001e-07 $ ALLSEL
TIME,2.784649881 $ KBC,1 $ AUTOTS,ON $ DELTIM,0.04375031712499999,0.0043750317125,0.17500126849999997 $ SOLVE
ESEL,S,MAT,,1 $ ESEL,R,CENT,Z,(0.0+0.0007)/2 $ BFE,ALL,HGEN,1,700.0/4.375000000000001e-07 $ ALLSEL
TIME,3.055682379 $ KBC,1 $ AUTOTS,ON $ DELTIM,0.03387906224999998,0.0033879062249999982,0.13551624899999992 $ SOLVE
ESEL,S,MAT,,1 $ ESEL,R,CENT,Z,(0.0+0.0007)/2 $ BFE,ALL,HGEN,1,84.0/4.375000000000001e-07 $ ALLSEL
TIME,3.405684916 $ KBC,1 $ AUTOTS,ON $ DELTIM,0.04375031712499999,0.0043750317125,0.17500126849999997 $ SOLVE
ESEL,S,MAT,,1 $ ESEL,R,CENT,Z,(0.0+0.0007)/2 $ BFE,ALL,HGEN,1,140.0/4.375000000000001e-07 $ ALLSEL
TIME,3.40687638 $ KBC,1 $ AUTOTS,ON $ DELTIM,0.00014893300000001775,1.4893300000001774e-05,0.000595732000000071 $ SOLVE
ESEL,S,MAT,,1 $ ESEL,R,CENT,Z,(0.0+0.0007)/2 $ BFE,ALL,HGEN,1,140.0/4.375000000000001e-07 $ ALLSEL
TIME,3.409250037 $ KBC,1 $ AUTOTS,ON $ DELTIM,0.0002967071250000175,2.967071250000175e-05,0.00118682850000007 $ SOLVE
ESEL,S,MAT,,1 $ ESEL,R,CENT,Z,(0.0+0.0007)/2 $ BFE,ALL,HGEN,1,84.0/4.375000000000001e-07 $ ALLSEL
TIME,3.759252574 $ KBC,1 $ AUTOTS,ON $ DELTIM,0.04375031712499999,0.0043750317125,0.17500126849999997 $ SOLVE
ESEL,S,MAT,,1 $ ESEL,R,CENT,Z,(0.0+0.0007)/2 $ BFE,ALL,HGEN,1,700.0/4.375000000000001e-07 $ ALLSEL
TIME,4.071678979 $ KBC,1 $ AUTOTS,ON $ DELTIM,0.039053300624999954,0.0039053300624999955,0.15621320249999981 $ SOLVE
ESEL,S,MAT,,1 $ ESEL,R,CENT,Z,(0.0+0.0007)/2 $ BFE,ALL,HGEN,1,84.0/4.375000000000001e-07 $ ALLSEL
TIME,4.421681516 $ KBC,1 $ AUTOTS,ON $ DELTIM,0.04375031712499999,0.0043750317125,0.17500126849999997 $ SOLVE
ESEL,S,MAT,,1 $ ESEL,R,CENT,Z,(0.0+0.0007)/2 $ BFE,ALL,HGEN,1,280.0/4.375000000000001e-07 $ ALLSEL
TIME,4.423224591 $ KBC,1 $ AUTOTS,ON $ DELTIM,0.0001928843750000908,1.9288437500009083e-05,0.0007715375000003633 $ SOLVE
ESEL,S,MAT,,1 $ ESEL,R,CENT,Z,(0.0+0.0007)/2 $ BFE,ALL,HGEN,1,700.0/4.375000000000001e-07 $ ALLSEL
TIME,4.573373595 $ KBC,1 $ AUTOTS,ON $ DELTIM,0.018768625499999914,0.0018768625499999913,0.07507450199999965 $ SOLVE
ESEL,S,MAT,,1 $ ESEL,R,CENT,Z,(0.0+0.0007)/2 $ BFE,ALL,HGEN,1,700.0/4.375000000000001e-07 $ ALLSEL
TIME,4.720266634 $ KBC,1 $ AUTOTS,ON $ DELTIM,0.018361629875000007,0.0018361629875000007,0.07344651950000003 $ SOLVE
ESEL,S,MAT,,1 $ ESEL,R,CENT,Z,(0.0+0.0007)/2 $ BFE,ALL,HGEN,1,280.0/4.375000000000001e-07 $ ALLSEL
TIME,4.721334141 $ KBC,1 $ AUTOTS,ON $ DELTIM,0.00013343837500001676,1.3343837500001676e-05,0.000533753500000067 $ SOLVE
ESEL,S,MAT,,1 $ ESEL,R,CENT,Z,(0.0+0.0007)/2 $ BFE,ALL,HGEN,1,84.0/4.375000000000001e-07 $ ALLSEL
TIME,5.071336678 $ KBC,1 $ AUTOTS,ON $ DELTIM,0.04375031712499999,0.0043750317125,0.17500126849999997 $ SOLVE
ESEL,S,MAT,,1 $ ESEL,R,CENT,Z,(0.0+0.0007)/2 $ BFE,ALL,HGEN,1,700.0/4.375000000000001e-07 $ ALLSEL
TIME,5.342369176 $ KBC,1 $ AUTOTS,ON $ DELTIM,0.033879062250000036,0.0033879062250000034,0.13551624900000014 $ SOLVE
ESEL,S,MAT,,1 $ ESEL,R,CENT,Z,(0.0+0.0007)/2 $ BFE,ALL,HGEN,1,84.0/4.375000000000001e-07 $ ALLSEL
TIME,5.692371713 $ KBC,1 $ AUTOTS,ON $ DELTIM,0.04375031712499999,0.0043750317125,0.17500126849999997 $ SOLVE
ESEL,S,MAT,,1 $ ESEL,R,CENT,Z,(0.0+0.0007)/2 $ BFE,ALL,HGEN,1,140.0/4.375000000000001e-07 $ ALLSEL
TIME,5.693563178 $ KBC,1 $ AUTOTS,ON $ DELTIM,0.00014893312499997258,1.4893312499997258e-05,0.0005957324999998903 $ SOLVE
ESEL,S,MAT,,1 $ ESEL,R,CENT,Z,(0.0+0.0007)/2 $ BFE,ALL,HGEN,1,140.0/4.375000000000001e-07 $ ALLSEL
TIME,5.695936834 $ KBC,1 $ AUTOTS,ON $ DELTIM,0.00029670700000006267,2.967070000000627e-05,0.0011868280000002507 $ SOLVE
ESEL,S,MAT,,1 $ ESEL,R,CENT,Z,(0.0+0.0007)/2 $ BFE,ALL,HGEN,1,84.0/4.375000000000001e-07 $ ALLSEL
TIME,6.045939371 $ KBC,1 $ AUTOTS,ON $ DELTIM,0.04375031712499999,0.0043750317125,0.17500126849999997 $ SOLVE
ESEL,S,MAT,,1 $ ESEL,R,CENT,Z,(0.0+0.0007)/2 $ BFE,ALL,HGEN,1,700.0/4.375000000000001e-07 $ ALLSEL
TIME,6.358365776 $ KBC,1 $ AUTOTS,ON $ DELTIM,0.03905330062500001,0.003905330062500001,0.15621320250000004 $ SOLVE
ESEL,S,MAT,,1 $ ESEL,R,CENT,Z,(0.0+0.0007)/2 $ BFE,ALL,HGEN,1,84.0/4.375000000000001e-07 $ ALLSEL
TIME,6.708368313 $ KBC,1 $ AUTOTS,ON $ DELTIM,0.04375031712499999,0.0043750317125,0.17500126849999997 $ SOLVE
ESEL,S,MAT,,1 $ ESEL,R,CENT,Z,(0.0+0.0007)/2 $ BFE,ALL,HGEN,1,280.0/4.375000000000001e-07 $ ALLSEL
TIME,6.709911389 $ KBC,1 $ AUTOTS,ON $ DELTIM,0.00019288449999999013,1.9288449999999014e-05,0.0007715379999999605 $ SOLVE
ESEL,S,MAT,,1 $ ESEL,R,CENT,Z,(0.0+0.0007)/2 $ BFE,ALL,HGEN,1,700.0/4.375000000000001e-07 $ ALLSEL
TIME,6.860060392 $ KBC,1 $ AUTOTS,ON $ DELTIM,0.018768625375000014,0.0018768625375000015,0.07507450150000006 $ SOLVE
ESEL,S,MAT,,1 $ ESEL,R,CENT,Z,(0.0+0.0007)/2 $ BFE,ALL,HGEN,1,700.0/4.375000000000001e-07 $ ALLSEL
TIME,7.006953431 $ KBC,1 $ AUTOTS,ON $ DELTIM,0.018361629875000007,0.0018361629875000007,0.07344651950000003 $ SOLVE
ESEL,S,MAT,,1 $ ESEL,R,CENT,Z,(0.0+0.0007)/2 $ BFE,ALL,HGEN,1,280.0/4.375000000000001e-07 $ ALLSEL
TIME,7.008020938 $ KBC,1 $ AUTOTS,ON $ DELTIM,0.00013343837499990574,1.3343837499990574e-05,0.000533753499999623 $ SOLVE
ESEL,S,MAT,,1 $ ESEL,R,CENT,Z,(0.0+0.0007)/2 $ BFE,ALL,HGEN,1,84.0/4.375000000000001e-07 $ ALLSEL
TIME,7.358023475 $ KBC,1 $ AUTOTS,ON $ DELTIM,0.043750317125000104,0.00437503171250001,0.17500126850000042 $ SOLVE
ESEL,S,MAT,,1 $ ESEL,R,CENT,Z,(0.0+0.0007)/2 $ BFE,ALL,HGEN,1,700.0/4.375000000000001e-07 $ ALLSEL
TIME,7.629055974 $ KBC,1 $ AUTOTS,ON $ DELTIM,0.033879062374999935,0.0033879062374999936,0.13551624949999974 $ SOLVE
ESEL,S,MAT,,1 $ ESEL,R,CENT,Z,(0.0+0.0007)/2 $ BFE,ALL,HGEN,1,84.0/4.375000000000001e-07 $ ALLSEL
TIME,7.979058511 $ KBC,1 $ AUTOTS,ON $ DELTIM,0.04375031712499999,0.0043750317125,0.17500126849999997 $ SOLVE
ESEL,S,MAT,,1 $ ESEL,R,CENT,Z,(0.0+0.0007)/2 $ BFE,ALL,HGEN,1,140.0/4.375000000000001e-07 $ ALLSEL
TIME,7.980249975 $ KBC,1 $ AUTOTS,ON $ DELTIM,0.00014893300000007326,1.4893300000007325e-05,0.000595732000000293 $ SOLVE
ESEL,S,MAT,,1 $ ESEL,R,CENT,Z,(0.0+0.0007)/2 $ BFE,ALL,HGEN,1,140.0/4.375000000000001e-07 $ ALLSEL
TIME,7.982623632 $ KBC,1 $ AUTOTS,ON $ DELTIM,0.000296707124999962,2.96707124999962e-05,0.001186828499999848 $ SOLVE
ESEL,S,MAT,,1 $ ESEL,R,CENT,Z,(0.0+0.0007)/2 $ BFE,ALL,HGEN,1,84.0/4.375000000000001e-07 $ ALLSEL
TIME,8.332626169 $ KBC,1 $ AUTOTS,ON $ DELTIM,0.04375031712499988,0.004375031712499988,0.17500126849999953 $ SOLVE
ESEL,S,MAT,,1 $ ESEL,R,CENT,Z,(0.0+0.0007)/2 $ BFE,ALL,HGEN,1,700.0/4.375000000000001e-07 $ ALLSEL
TIME,8.645052574 $ KBC,1 $ AUTOTS,ON $ DELTIM,0.03905330062500001,0.003905330062500001,0.15621320250000004 $ SOLVE
ESEL,S,MAT,,1 $ ESEL,R,CENT,Z,(0.0+0.0007)/2 $ BFE,ALL,HGEN,1,84.0/4.375000000000001e-07 $ ALLSEL
TIME,8.995055111 $ KBC,1 $ AUTOTS,ON $ DELTIM,0.04375031712499999,0.0043750317125,0.17500126849999997 $ SOLVE
ESEL,S,MAT,,1 $ ESEL,R,CENT,Z,(0.0+0.0007)/2 $ BFE,ALL,HGEN,1,280.0/4.375000000000001e-07 $ ALLSEL
TIME,8.996598186 $ KBC,1 $ AUTOTS,ON $ DELTIM,0.0001928843750000908,1.9288437500009083e-05,0.0007715375000003633 $ SOLVE
ESEL,S,MAT,,1 $ ESEL,R,CENT,Z,(0.0+0.0007)/2 $ BFE,ALL,HGEN,1,700.0/4.375000000000001e-07 $ ALLSEL
TIME,9.14674719 $ KBC,1 $ AUTOTS,ON $ DELTIM,0.018768625499999914,0.0018768625499999913,0.07507450199999965 $ SOLVE
ESEL,S,MAT,,1 $ ESEL,R,CENT,Z,(0.0+0.0007)/2 $ BFE,ALL,HGEN,1,700.0/4.375000000000001e-07 $ ALLSEL
TIME,9.293640229 $ KBC,1 $ AUTOTS,ON $ DELTIM,0.018361629875000007,0.0018361629875000007,0.07344651950000003 $ SOLVE
ESEL,S,MAT,,1 $ ESEL,R,CENT,Z,(0.0+0.0007)/2 $ BFE,ALL,HGEN,1,280.0/4.375000000000001e-07 $ ALLSEL
TIME,9.294707736 $ KBC,1 $ AUTOTS,ON $ DELTIM,0.00013343837500001676,1.3343837500001676e-05,0.000533753500000067 $ SOLVE
ESEL,S,MAT,,1 $ ESEL,R,CENT,Z,(0.0+0.0007)/2 $ BFE,ALL,HGEN,1,84.0/4.375000000000001e-07 $ ALLSEL
TIME,9.644710273 $ KBC,1 $ AUTOTS,ON $ DELTIM,0.04375031712499999,0.0043750317125,0.17500126849999997 $ SOLVE
ESEL,S,MAT,,1 $ ESEL,R,CENT,Z,(0.0+0.0007)/2 $ BFE,ALL,HGEN,1,700.0/4.375000000000001e-07 $ ALLSEL
TIME,9.915742771 $ KBC,1 $ AUTOTS,ON $ DELTIM,0.033879062250000036,0.0033879062250000034,0.13551624900000014 $ SOLVE
ESEL,S,MAT,,1 $ ESEL,R,CENT,Z,(0.0+0.0007)/2 $ BFE,ALL,HGEN,1,84.0/4.375000000000001e-07 $ ALLSEL
TIME,10.265745308 $ KBC,1 $ AUTOTS,ON $ DELTIM,0.04375031712499999,0.0043750317125,0.17500126849999997 $ SOLVE
ESEL,S,MAT,,1 $ ESEL,R,CENT,Z,(0.0+0.0007)/2 $ BFE,ALL,HGEN,1,140.0/4.375000000000001e-07 $ ALLSEL
TIME,10.266936773 $ KBC,1 $ AUTOTS,ON $ DELTIM,0.00014893312499997258,1.4893312499997258e-05,0.0005957324999998903 $ SOLVE
ESEL,S,MAT,,1 $ ESEL,R,CENT,Z,(0.0+0.0007)/2 $ BFE,ALL,HGEN,1,140.0/4.375000000000001e-07 $ ALLSEL
TIME,10.269310429 $ KBC,1 $ AUTOTS,ON $ DELTIM,0.0002967070000001737,2.9670700000017368e-05,0.0011868280000006948 $ SOLVE
ESEL,S,MAT,,1 $ ESEL,R,CENT,Z,(0.0+0.0007)/2 $ BFE,ALL,HGEN,1,84.0/4.375000000000001e-07 $ ALLSEL
TIME,10.619312966 $ KBC,1 $ AUTOTS,ON $ DELTIM,0.04375031712499999,0.0043750317125,0.17500126849999997 $ SOLVE
ESEL,S,MAT,,1 $ ESEL,R,CENT,Z,(0.0+0.0007)/2 $ BFE,ALL,HGEN,1,700.0/4.375000000000001e-07 $ ALLSEL
TIME,10.931739371 $ KBC,1 $ AUTOTS,ON $ DELTIM,0.03905330062500001,0.003905330062500001,0.15621320250000004 $ SOLVE
ESEL,S,MAT,,1 $ ESEL,R,CENT,Z,(0.0+0.0007)/2 $ BFE,ALL,HGEN,1,84.0/4.375000000000001e-07 $ ALLSEL
TIME,11.281741908 $ KBC,1 $ AUTOTS,ON $ DELTIM,0.04375031712499999,0.0043750317125,0.17500126849999997 $ SOLVE
ESEL,S,MAT,,1 $ ESEL,R,CENT,Z,(0.0+0.0007)/2 $ BFE,ALL,HGEN,1,280.0/4.375000000000001e-07 $ ALLSEL
TIME,11.283284983 $ KBC,1 $ AUTOTS,ON $ DELTIM,0.00019288437499986877,1.9288437499986877e-05,0.0007715374999994751 $ SOLVE
ESEL,S,MAT,,1 $ ESEL,R,CENT,Z,(0.0+0.0007)/2 $ BFE,ALL,HGEN,1,700.0/4.375000000000001e-07 $ ALLSEL
TIME,11.433433987 $ KBC,1 $ AUTOTS,ON $ DELTIM,0.018768625500000136,0.0018768625500000136,0.07507450200000054 $ SOLVE
ESEL,S,MAT,,1 $ ESEL,R,CENT,Z,(0.0+0.0007)/2 $ BFE,ALL,HGEN,1,700.0/4.375000000000001e-07 $ ALLSEL
TIME,11.580327026 $ KBC,1 $ AUTOTS,ON $ DELTIM,0.018361629875000007,0.0018361629875000007,0.07344651950000003 $ SOLVE
ESEL,S,MAT,,1 $ ESEL,R,CENT,Z,(0.0+0.0007)/2 $ BFE,ALL,HGEN,1,280.0/4.375000000000001e-07 $ ALLSEL
TIME,11.581394533 $ KBC,1 $ AUTOTS,ON $ DELTIM,0.00013343837499979472,1.3343837499979471e-05,0.0005337534999991789 $ SOLVE
ESEL,S,MAT,,1 $ ESEL,R,CENT,Z,(0.0+0.0007)/2 $ BFE,ALL,HGEN,1,84.0/4.375000000000001e-07 $ ALLSEL
TIME,11.93139707 $ KBC,1 $ AUTOTS,ON $ DELTIM,0.04375031712499999,0.0043750317125,0.17500126849999997 $ SOLVE
ESEL,S,MAT,,1 $ ESEL,R,CENT,Z,(0.0+0.0007)/2 $ BFE,ALL,HGEN,1,700.0/4.375000000000001e-07 $ ALLSEL
TIME,12.202429569 $ KBC,1 $ AUTOTS,ON $ DELTIM,0.033879062375000046,0.0033879062375000045,0.13551624950000019 $ SOLVE
ESEL,S,MAT,,1 $ ESEL,R,CENT,Z,(0.0+0.0007)/2 $ BFE,ALL,HGEN,1,84.0/4.375000000000001e-07 $ ALLSEL
TIME,12.552432106 $ KBC,1 $ AUTOTS,ON $ DELTIM,0.04375031712499999,0.0043750317125,0.17500126849999997 $ SOLVE
ESEL,S,MAT,,1 $ ESEL,R,CENT,Z,(0.0+0.0007)/2 $ BFE,ALL,HGEN,1,140.0/4.375000000000001e-07 $ ALLSEL
TIME,12.55362357 $ KBC,1 $ AUTOTS,ON $ DELTIM,0.00014893299999996223,1.4893299999996224e-05,0.0005957319999998489 $ SOLVE
ESEL,S,MAT,,1 $ ESEL,R,CENT,Z,(0.0+0.0007)/2 $ BFE,ALL,HGEN,1,140.0/4.375000000000001e-07 $ ALLSEL
TIME,12.555997226 $ KBC,1 $ AUTOTS,ON $ DELTIM,0.0002967070000001737,2.9670700000017368e-05,0.0011868280000006948 $ SOLVE
ESEL,S,MAT,,1 $ ESEL,R,CENT,Z,(0.0+0.0007)/2 $ BFE,ALL,HGEN,1,84.0/4.375000000000001e-07 $ ALLSEL
TIME,12.905999763 $ KBC,1 $ AUTOTS,ON $ DELTIM,0.04375031712499999,0.0043750317125,0.17500126849999997 $ SOLVE
ESEL,S,MAT,,1 $ ESEL,R,CENT,Z,(0.0+0.0007)/2 $ BFE,ALL,HGEN,1,700.0/4.375000000000001e-07 $ ALLSEL
TIME,13.218426169 $ KBC,1 $ AUTOTS,ON $ DELTIM,0.03905330075000002,0.003905330075000002,0.15621320300000008 $ SOLVE
ESEL,S,MAT,,1 $ ESEL,R,CENT,Z,(0.0+0.0007)/2 $ BFE,ALL,HGEN,1,84.0/4.375000000000001e-07 $ ALLSEL
TIME,13.568428706 $ KBC,1 $ AUTOTS,ON $ DELTIM,0.04375031712499999,0.0043750317125,0.17500126849999997 $ SOLVE
ESEL,S,MAT,,1 $ ESEL,R,CENT,Z,(0.0+0.0007)/2 $ BFE,ALL,HGEN,1,280.0/4.375000000000001e-07 $ ALLSEL
TIME,13.569971781 $ KBC,1 $ AUTOTS,ON $ DELTIM,0.00019288437499986877,1.9288437499986877e-05,0.0007715374999994751 $ SOLVE
ESEL,S,MAT,,1 $ ESEL,R,CENT,Z,(0.0+0.0007)/2 $ BFE,ALL,HGEN,1,700.0/4.375000000000001e-07 $ ALLSEL
TIME,13.720120785 $ KBC,1 $ AUTOTS,ON $ DELTIM,0.018768625500000136,0.0018768625500000136,0.07507450200000054 $ SOLVE
ESEL,S,MAT,,1 $ ESEL,R,CENT,Z,(0.0+0.0007)/2 $ BFE,ALL,HGEN,1,700.0/4.375000000000001e-07 $ ALLSEL
TIME,13.867013824 $ KBC,1 $ AUTOTS,ON $ DELTIM,0.018361629875000007,0.0018361629875000007,0.07344651950000003 $ SOLVE
ESEL,S,MAT,,1 $ ESEL,R,CENT,Z,(0.0+0.0007)/2 $ BFE,ALL,HGEN,1,280.0/4.375000000000001e-07 $ ALLSEL
TIME,13.868081331 $ KBC,1 $ AUTOTS,ON $ DELTIM,0.00013343837500001676,1.3343837500001676e-05,0.000533753500000067 $ SOLVE
ESEL,S,MAT,,1 $ ESEL,R,CENT,Z,(0.0+0.0007)/2 $ BFE,ALL,HGEN,1,84.0/4.375000000000001e-07 $ ALLSEL
TIME,14.218083868 $ KBC,1 $ AUTOTS,ON $ DELTIM,0.04375031712499999,0.0043750317125,0.17500126849999997 $ SOLVE
ESEL,S,MAT,,1 $ ESEL,R,CENT,Z,(0.0+0.0007)/2 $ BFE,ALL,HGEN,1,700.0/4.375000000000001e-07 $ ALLSEL
TIME,14.489116366 $ KBC,1 $ AUTOTS,ON $ DELTIM,0.033879062249999814,0.0033879062249999813,0.13551624899999926 $ SOLVE
ESEL,S,MAT,,1 $ ESEL,R,CENT,Z,(0.0+0.0007)/2 $ BFE,ALL,HGEN,1,84.0/4.375000000000001e-07 $ ALLSEL
TIME,14.839118903 $ KBC,1 $ AUTOTS,ON $ DELTIM,0.04375031712499999,0.0043750317125,0.17500126849999997 $ SOLVE
ESEL,S,MAT,,1 $ ESEL,R,CENT,Z,(0.0+0.0007)/2 $ BFE,ALL,HGEN,1,140.0/4.375000000000001e-07 $ ALLSEL
TIME,14.840310368 $ KBC,1 $ AUTOTS,ON $ DELTIM,0.00014893312500019462,1.4893312500019463e-05,0.0005957325000007785 $ SOLVE
ESEL,S,MAT,,1 $ ESEL,R,CENT,Z,(0.0+0.0007)/2 $ BFE,ALL,HGEN,1,140.0/4.375000000000001e-07 $ ALLSEL
TIME,14.842684024 $ KBC,1 $ AUTOTS,ON $ DELTIM,0.00029670699999995165,2.9670699999995166e-05,0.0011868279999998066 $ SOLVE
ESEL,S,MAT,,1 $ ESEL,R,CENT,Z,(0.0+0.0007)/2 $ BFE,ALL,HGEN,1,84.0/4.375000000000001e-07 $ ALLSEL
TIME,15.192686561 $ KBC,1 $ AUTOTS,ON $ DELTIM,0.04375031712499999,0.0043750317125,0.17500126849999997 $ SOLVE
ESEL,S,MAT,,1 $ ESEL,R,CENT,Z,(0.0+0.0007)/2 $ BFE,ALL,HGEN,1,700.0/4.375000000000001e-07 $ ALLSEL
TIME,15.505112966 $ KBC,1 $ AUTOTS,ON $ DELTIM,0.03905330062500001,0.003905330062500001,0.15621320250000004 $ SOLVE
ESEL,S,MAT,,1 $ ESEL,R,CENT,Z,(0.0+0.0007)/2 $ BFE,ALL,HGEN,1,84.0/4.375000000000001e-07 $ ALLSEL
TIME,15.855115503 $ KBC,1 $ AUTOTS,ON $ DELTIM,0.04375031712499999,0.0043750317125,0.17500126849999997 $ SOLVE
ESEL,S,MAT,,1 $ ESEL,R,CENT,Z,(0.0+0.0007)/2 $ BFE,ALL,HGEN,1,280.0/4.375000000000001e-07 $ ALLSEL
TIME,15.856658578 $ KBC,1 $ AUTOTS,ON $ DELTIM,0.00019288437499986877,1.9288437499986877e-05,0.0007715374999994751 $ SOLVE
ESEL,S,MAT,,1 $ ESEL,R,CENT,Z,(0.0+0.0007)/2 $ BFE,ALL,HGEN,1,700.0/4.375000000000001e-07 $ ALLSEL
TIME,16.006807582 $ KBC,1 $ AUTOTS,ON $ DELTIM,0.018768625500000136,0.0018768625500000136,0.07507450200000054 $ SOLVE
ESEL,S,MAT,,1 $ ESEL,R,CENT,Z,(0.0+0.0007)/2 $ BFE,ALL,HGEN,1,700.0/4.375000000000001e-07 $ ALLSEL
TIME,16.153700621 $ KBC,1 $ AUTOTS,ON $ DELTIM,0.018361629874999785,0.0018361629874999786,0.07344651949999914 $ SOLVE
ESEL,S,MAT,,1 $ ESEL,R,CENT,Z,(0.0+0.0007)/2 $ BFE,ALL,HGEN,1,280.0/4.375000000000001e-07 $ ALLSEL
TIME,16.154768128 $ KBC,1 $ AUTOTS,ON $ DELTIM,0.0001334383750002388,1.3343837500023881e-05,0.0005337535000009552 $ SOLVE
ESEL,S,MAT,,1 $ ESEL,R,CENT,Z,(0.0+0.0007)/2 $ BFE,ALL,HGEN,1,84.0/4.375000000000001e-07 $ ALLSEL
TIME,16.504770665 $ KBC,1 $ AUTOTS,ON $ DELTIM,0.04375031712499977,0.004375031712499977,0.17500126849999909 $ SOLVE
ESEL,S,MAT,,1 $ ESEL,R,CENT,Z,(0.0+0.0007)/2 $ BFE,ALL,HGEN,1,700.0/4.375000000000001e-07 $ ALLSEL
TIME,16.775803164 $ KBC,1 $ AUTOTS,ON $ DELTIM,0.033879062375000046,0.0033879062375000045,0.13551624950000019 $ SOLVE
ESEL,S,MAT,,1 $ ESEL,R,CENT,Z,(0.0+0.0007)/2 $ BFE,ALL,HGEN,1,84.0/4.375000000000001e-07 $ ALLSEL
TIME,17.125805701 $ KBC,1 $ AUTOTS,ON $ DELTIM,0.043750317125000215,0.004375031712500021,0.17500126850000086 $ SOLVE
ESEL,S,MAT,,1 $ ESEL,R,CENT,Z,(0.0+0.0007)/2 $ BFE,ALL,HGEN,1,140.0/4.375000000000001e-07 $ ALLSEL
TIME,17.126997165 $ KBC,1 $ AUTOTS,ON $ DELTIM,0.0001489329999997402,1.4893299999974018e-05,0.0005957319999989608 $ SOLVE
ESEL,S,MAT,,1 $ ESEL,R,CENT,Z,(0.0+0.0007)/2 $ BFE,ALL,HGEN,1,140.0/4.375000000000001e-07 $ ALLSEL
TIME,17.129370821 $ KBC,1 $ AUTOTS,ON $ DELTIM,0.00029670699999995165,2.9670699999995166e-05,0.0011868279999998066 $ SOLVE
ESEL,S,MAT,,1 $ ESEL,R,CENT,Z,(0.0+0.0007)/2 $ BFE,ALL,HGEN,1,84.0/4.375000000000001e-07 $ ALLSEL
TIME,17.479373358 $ KBC,1 $ AUTOTS,ON $ DELTIM,0.043750317125000215,0.004375031712500021,0.17500126850000086 $ SOLVE
ESEL,S,MAT,,1 $ ESEL,R,CENT,Z,(0.0+0.0007)/2 $ BFE,ALL,HGEN,1,700.0/4.375000000000001e-07 $ ALLSEL
TIME,17.791799764 $ KBC,1 $ AUTOTS,ON $ DELTIM,0.03905330075000002,0.003905330075000002,0.15621320300000008 $ SOLVE
ESEL,S,MAT,,1 $ ESEL,R,CENT,Z,(0.0+0.0007)/2 $ BFE,ALL,HGEN,1,84.0/4.375000000000001e-07 $ ALLSEL
TIME,18.141802301 $ KBC,1 $ AUTOTS,ON $ DELTIM,0.04375031712499977,0.004375031712499977,0.17500126849999909 $ SOLVE
ESEL,S,MAT,,1 $ ESEL,R,CENT,Z,(0.0+0.0007)/2 $ BFE,ALL,HGEN,1,280.0/4.375000000000001e-07 $ ALLSEL
TIME,18.143345376 $ KBC,1 $ AUTOTS,ON $ DELTIM,0.0001928843750000908,1.9288437500009083e-05,0.0007715375000003633 $ SOLVE
ESEL,S,MAT,,1 $ ESEL,R,CENT,Z,(0.0+0.0007)/2 $ BFE,ALL,HGEN,1,700.0/4.375000000000001e-07 $ ALLSEL
TIME,18.29349438 $ KBC,1 $ AUTOTS,ON $ DELTIM,0.018768625499999914,0.0018768625499999913,0.07507450199999965 $ SOLVE
ESEL,S,MAT,,1 $ ESEL,R,CENT,Z,(0.0+0.0007)/2 $ BFE,ALL,HGEN,1,700.0/4.375000000000001e-07 $ ALLSEL
TIME,18.440387418 $ KBC,1 $ AUTOTS,ON $ DELTIM,0.01836162975000022,0.0018361629750000218,0.07344651900000088 $ SOLVE
ESEL,S,MAT,,1 $ ESEL,R,CENT,Z,(0.0+0.0007)/2 $ BFE,ALL,HGEN,1,280.0/4.375000000000001e-07 $ ALLSEL
TIME,18.441454926 $ KBC,1 $ AUTOTS,ON $ DELTIM,0.00013343849999980506,1.3343849999980506e-05,0.0005337539999992202 $ SOLVE
ESEL,S,MAT,,1 $ ESEL,R,CENT,Z,(0.0+0.0007)/2 $ BFE,ALL,HGEN,1,84.0/4.375000000000001e-07 $ ALLSEL
TIME,18.791457463 $ KBC,1 $ AUTOTS,ON $ DELTIM,0.043750317125000215,0.004375031712500021,0.17500126850000086 $ SOLVE
ESEL,S,MAT,,1 $ ESEL,R,CENT,Z,(0.0+0.0007)/2 $ BFE,ALL,HGEN,1,700.0/4.375000000000001e-07 $ ALLSEL
TIME,19.062489961 $ KBC,1 $ AUTOTS,ON $ DELTIM,0.033879062250000036,0.0033879062250000034,0.13551624900000014 $ SOLVE
ESEL,S,MAT,,1 $ ESEL,R,CENT,Z,(0.0+0.0007)/2 $ BFE,ALL,HGEN,1,84.0/4.375000000000001e-07 $ ALLSEL
TIME,19.412492498 $ KBC,1 $ AUTOTS,ON $ DELTIM,0.04375031712499977,0.004375031712499977,0.17500126849999909 $ SOLVE
ESEL,S,MAT,,1 $ ESEL,R,CENT,Z,(0.0+0.0007)/2 $ BFE,ALL,HGEN,1,140.0/4.375000000000001e-07 $ ALLSEL
TIME,19.413683962 $ KBC,1 $ AUTOTS,ON $ DELTIM,0.00014893300000018428,1.4893300000018428e-05,0.0005957320000007371 $ SOLVE
ESEL,S,MAT,,1 $ ESEL,R,CENT,Z,(0.0+0.0007)/2 $ BFE,ALL,HGEN,1,140.0/4.375000000000001e-07 $ ALLSEL
TIME,19.416057619 $ KBC,1 $ AUTOTS,ON $ DELTIM,0.000296707124999962,2.96707124999962e-05,0.001186828499999848 $ SOLVE
ESEL,S,MAT,,1 $ ESEL,R,CENT,Z,(0.0+0.0007)/2 $ BFE,ALL,HGEN,1,84.0/4.375000000000001e-07 $ ALLSEL
TIME,19.766060156 $ KBC,1 $ AUTOTS,ON $ DELTIM,0.043750317125000215,0.004375031712500021,0.17500126850000086 $ SOLVE
ESEL,S,MAT,,1 $ ESEL,R,CENT,Z,(0.0+0.0007)/2 $ BFE,ALL,HGEN,1,700.0/4.375000000000001e-07 $ ALLSEL
TIME,20.078486561 $ KBC,1 $ AUTOTS,ON $ DELTIM,0.039053300624999565,0.0039053300624999564,0.15621320249999826 $ SOLVE
ESEL,S,MAT,,1 $ ESEL,R,CENT,Z,(0.0+0.0007)/2 $ BFE,ALL,HGEN,1,84.0/4.375000000000001e-07 $ ALLSEL
TIME,20.428489098 $ KBC,1 $ AUTOTS,ON $ DELTIM,0.043750317125000215,0.004375031712500021,0.17500126850000086 $ SOLVE
ESEL,S,MAT,,1 $ ESEL,R,CENT,Z,(0.0+0.0007)/2 $ BFE,ALL,HGEN,1,280.0/4.375000000000001e-07 $ ALLSEL
TIME,20.430032173 $ KBC,1 $ AUTOTS,ON $ DELTIM,0.0001928843750000908,1.9288437500009083e-05,0.0007715375000003633 $ SOLVE
ESEL,S,MAT,,1 $ ESEL,R,CENT,Z,(0.0+0.0007)/2 $ BFE,ALL,HGEN,1,700.0/4.375000000000001e-07 $ ALLSEL
TIME,20.580181177 $ KBC,1 $ AUTOTS,ON $ DELTIM,0.018768625499999914,0.0018768625499999913,0.07507450199999965 $ SOLVE
ESEL,S,MAT,,1 $ ESEL,R,CENT,Z,(0.0+0.0007)/2 $ BFE,ALL,HGEN,1,700.0/4.375000000000001e-07 $ ALLSEL
TIME,20.727074216 $ KBC,1 $ AUTOTS,ON $ DELTIM,0.018361629874999785,0.0018361629874999786,0.07344651949999914 $ SOLVE
ESEL,S,MAT,,1 $ ESEL,R,CENT,Z,(0.0+0.0007)/2 $ BFE,ALL,HGEN,1,280.0/4.375000000000001e-07 $ ALLSEL
TIME,20.728141723 $ KBC,1 $ AUTOTS,ON $ DELTIM,0.0001334383750002388,1.3343837500023881e-05,0.0005337535000009552 $ SOLVE
ESEL,S,MAT,,1 $ ESEL,R,CENT,Z,(0.0+0.0007)/2 $ BFE,ALL,HGEN,1,84.0/4.375000000000001e-07 $ ALLSEL
TIME,21.07814426 $ KBC,1 $ AUTOTS,ON $ DELTIM,0.04375031712499977,0.004375031712499977,0.17500126849999909 $ SOLVE
ESEL,S,MAT,,1 $ ESEL,R,CENT,Z,(0.0+0.0007)/2 $ BFE,ALL,HGEN,1,700.0/4.375000000000001e-07 $ ALLSEL
TIME,21.349176759 $ KBC,1 $ AUTOTS,ON $ DELTIM,0.033879062375000046,0.0033879062375000045,0.13551624950000019 $ SOLVE
ESEL,S,MAT,,1 $ ESEL,R,CENT,Z,(0.0+0.0007)/2 $ BFE,ALL,HGEN,1,84.0/4.375000000000001e-07 $ ALLSEL
TIME,21.699179296 $ KBC,1 $ AUTOTS,ON $ DELTIM,0.043750317125000215,0.004375031712500021,0.17500126850000086 $ SOLVE
ESEL,S,MAT,,1 $ ESEL,R,CENT,Z,(0.0+0.0007)/2 $ BFE,ALL,HGEN,1,140.0/4.375000000000001e-07 $ ALLSEL
TIME,21.70037076 $ KBC,1 $ AUTOTS,ON $ DELTIM,0.0001489329999997402,1.4893299999974018e-05,0.0005957319999989608 $ SOLVE
ESEL,S,MAT,,1 $ ESEL,R,CENT,Z,(0.0+0.0007)/2 $ BFE,ALL,HGEN,1,140.0/4.375000000000001e-07 $ ALLSEL
TIME,21.702744416 $ KBC,1 $ AUTOTS,ON $ DELTIM,0.00029670700000039574,2.9670700000039574e-05,0.001186828000001583 $ SOLVE
ESEL,S,MAT,,1 $ ESEL,R,CENT,Z,(0.0+0.0007)/2 $ BFE,ALL,HGEN,1,84.0/4.375000000000001e-07 $ ALLSEL
TIME,22.052746953 $ KBC,1 $ AUTOTS,ON $ DELTIM,0.04375031712499977,0.004375031712499977,0.17500126849999909 $ SOLVE
ESEL,S,MAT,,1 $ ESEL,R,CENT,Z,(0.0+0.0007)/2 $ BFE,ALL,HGEN,1,700.0/4.375000000000001e-07 $ ALLSEL
TIME,22.365173358 $ KBC,1 $ AUTOTS,ON $ DELTIM,0.03905330062500001,0.003905330062500001,0.15621320250000004 $ SOLVE
ESEL,S,MAT,,1 $ ESEL,R,CENT,Z,(0.0+0.0007)/2 $ BFE,ALL,HGEN,1,84.0/4.375000000000001e-07 $ ALLSEL
TIME,22.715175895 $ KBC,1 $ AUTOTS,ON $ DELTIM,0.043750317125000215,0.004375031712500021,0.17500126850000086 $ SOLVE
ESEL,S,MAT,,1 $ ESEL,R,CENT,Z,(0.0+0.0007)/2 $ BFE,ALL,HGEN,1,280.0/4.375000000000001e-07 $ ALLSEL
TIME,22.716718971 $ KBC,1 $ AUTOTS,ON $ DELTIM,0.00019288449999965707,1.9288449999965705e-05,0.0007715379999986283 $ SOLVE
ESEL,S,MAT,,1 $ ESEL,R,CENT,Z,(0.0+0.0007)/2 $ BFE,ALL,HGEN,1,700.0/4.375000000000001e-07 $ ALLSEL
TIME,22.866867974 $ KBC,1 $ AUTOTS,ON $ DELTIM,0.018768625375000347,0.0018768625375000347,0.07507450150000139 $ SOLVE
FINISH

/POST26
NUMVAR,200
NSOL,2,NMON,TEMP
/OUTPUT,mixtral8x7b_pic_transient_L32,csv
PRVAR,2
/OUTPUT
FINISH
