/PREP7
! ===== ICCAD2026 OIO3D GPU/EIC/aPIC transient (Coenen et al. TCPMT 2026 params) =====
MP,KXX,1,150.0 $ MP,KYY,1,150.0 $ MP,KZZ,1,150.0 $ MP,DENS,1,2330 $ MP,C,1,700
MP,KXX,2,5.0 $ MP,KYY,2,5.0 $ MP,KZZ,2,5.0 $ MP,DENS,2,2500 $ MP,C,2,800
MP,KXX,3,80.0 $ MP,KYY,3,80.0 $ MP,KZZ,3,80.0 $ MP,DENS,3,2300 $ MP,C,3,700
MP,KXX,4,2.55 $ MP,KYY,4,2.55 $ MP,KZZ,4,2.55 $ MP,DENS,4,2500 $ MP,C,4,800
ET,1,SOLID70
ESIZE,0.025/20
BLOCK,0,0.025,0,0.025,0.0,0.0007 $ VSEL,S,LOC,Z,(0.0+0.0007)/2 $ VATT,1,,1 $ VMESH,ALL $ ALLSEL
BLOCK,0,0.025,0,0.025,0.0007,0.0007023999999999999 $ VSEL,S,LOC,Z,(0.0007+0.0007023999999999999)/2 $ VATT,2,,1 $ VMESH,ALL $ ALLSEL
BLOCK,0,0.025,0,0.025,0.0007023999999999999,0.0008024 $ VSEL,S,LOC,Z,(0.0007023999999999999+0.0008024)/2 $ VATT,1,,1 $ VMESH,ALL $ ALLSEL
BLOCK,0,0.025,0,0.025,0.0008024,0.0008047999999999999 $ VSEL,S,LOC,Z,(0.0008024+0.0008047999999999999)/2 $ VATT,2,,1 $ VMESH,ALL $ ALLSEL
BLOCK,0,0.025,0,0.025,0.0008047999999999999,0.0008548 $ VSEL,S,LOC,Z,(0.0008047999999999999+0.0008548)/2 $ VATT,3,,1 $ VMESH,ALL $ ALLSEL
BLOCK,0,0.025,0,0.025,0.0008548,0.0008571999999999999 $ VSEL,S,LOC,Z,(0.0008548+0.0008571999999999999)/2 $ VATT,4,,1 $ VMESH,ALL $ ALLSEL
BLOCK,0,0.025,0,0.025,0.0008571999999999999,0.0011572 $ VSEL,S,LOC,Z,(0.0008571999999999999+0.0011572)/2 $ VATT,1,,1 $ VMESH,ALL $ ALLSEL
ALLSEL $ NUMMRG,NODE,1e-9 $ NUMCMP,NODE
VOL_XPU=4.375000000000001e-07
ESEL,S,MAT,,1 $ ESEL,R,CENT,Z,(0.0007023999999999999+0.0008024)/2 $ BFE,ALL,HGEN,1,266.25/6.250000000000001e-08 $ ALLSEL
ESEL,S,MAT,,3 $ BFE,ALL,HGEN,1,70.625/3.1250000000000005e-08 $ ALLSEL
ASEL,S,LOC,Z,0.0 $ SFA,ALL,,CONV,70000.0,45.0 $ ALLSEL
ASEL,S,LOC,Z,0.0011572 $ SFA,ALL,,CONV,16000.0000,45.0 $ ALLSEL
NMON=NODE(0.025/2,0.025/2,(0.0008047999999999999+0.0008548)/2)
FINISH

/SOLU
ANTYPE,TRANS
TRNOPT,FULL
OUTRES,ALL,ALL
TIMINT,OFF
ESEL,S,MAT,,1 $ ESEL,R,CENT,Z,(0.0+0.0007)/2 $ BFE,ALL,HGEN,1,700.0/4.375000000000001e-07 $ ALLSEL
TIME,1e-3 $ KBC,1 $ SOLVE
TIMINT,ON
ESEL,S,MAT,,1 $ ESEL,R,CENT,Z,(0.0+0.0007)/2 $ BFE,ALL,HGEN,1,700.0/4.375000000000001e-07 $ ALLSEL
TIME,0.012452068 $ KBC,1 $ AUTOTS,OFF $ DELTIM,0.001 $ SOLVE
ESEL,S,MAT,,1 $ ESEL,R,CENT,Z,(0.0+0.0007)/2 $ BFE,ALL,HGEN,1,280.0/4.375000000000001e-07 $ ALLSEL
TIME,0.012905492 $ KBC,1 $ AUTOTS,OFF $ DELTIM,5.6677999999999893e-05 $ SOLVE
ESEL,S,MAT,,1 $ ESEL,R,CENT,Z,(0.0+0.0007)/2 $ BFE,ALL,HGEN,1,84.0/4.375000000000001e-07 $ ALLSEL
TIME,0.362908029 $ KBC,1 $ AUTOTS,OFF $ DELTIM,0.001 $ SOLVE
ESEL,S,MAT,,1 $ ESEL,R,CENT,Z,(0.0+0.0007)/2 $ BFE,ALL,HGEN,1,700.0/4.375000000000001e-07 $ ALLSEL
TIME,0.396873762 $ KBC,1 $ AUTOTS,OFF $ DELTIM,0.001 $ SOLVE
ESEL,S,MAT,,1 $ ESEL,R,CENT,Z,(0.0+0.0007)/2 $ BFE,ALL,HGEN,1,84.0/4.375000000000001e-07 $ ALLSEL
TIME,0.746876299 $ KBC,1 $ AUTOTS,OFF $ DELTIM,0.001 $ SOLVE
ESEL,S,MAT,,1 $ ESEL,R,CENT,Z,(0.0+0.0007)/2 $ BFE,ALL,HGEN,1,140.0/4.375000000000001e-07 $ ALLSEL
TIME,0.747025486 $ KBC,1 $ AUTOTS,OFF $ DELTIM,1.8648374999999384e-05 $ SOLVE
ESEL,S,MAT,,1 $ ESEL,R,CENT,Z,(0.0+0.0007)/2 $ BFE,ALL,HGEN,1,140.0/4.375000000000001e-07 $ ALLSEL
TIME,0.747322434 $ KBC,1 $ AUTOTS,OFF $ DELTIM,3.7118500000002386e-05 $ SOLVE
ESEL,S,MAT,,1 $ ESEL,R,CENT,Z,(0.0+0.0007)/2 $ BFE,ALL,HGEN,1,84.0/4.375000000000001e-07 $ ALLSEL
TIME,1.097324971 $ KBC,1 $ AUTOTS,OFF $ DELTIM,0.001 $ SOLVE
ESEL,S,MAT,,1 $ ESEL,R,CENT,Z,(0.0+0.0007)/2 $ BFE,ALL,HGEN,1,700.0/4.375000000000001e-07 $ ALLSEL
TIME,1.136500678 $ KBC,1 $ AUTOTS,OFF $ DELTIM,0.001 $ SOLVE
ESEL,S,MAT,,1 $ ESEL,R,CENT,Z,(0.0+0.0007)/2 $ BFE,ALL,HGEN,1,84.0/4.375000000000001e-07 $ ALLSEL
TIME,1.486503215 $ KBC,1 $ AUTOTS,OFF $ DELTIM,0.001 $ SOLVE
ESEL,S,MAT,,1 $ ESEL,R,CENT,Z,(0.0+0.0007)/2 $ BFE,ALL,HGEN,1,280.0/4.375000000000001e-07 $ ALLSEL
TIME,1.487351425 $ KBC,1 $ AUTOTS,OFF $ DELTIM,0.00010602625000000199 $ SOLVE
ESEL,S,MAT,,1 $ ESEL,R,CENT,Z,(0.0+0.0007)/2 $ BFE,ALL,HGEN,1,700.0/4.375000000000001e-07 $ ALLSEL
TIME,1.512260122 $ KBC,1 $ AUTOTS,OFF $ DELTIM,0.001 $ SOLVE
ESEL,S,MAT,,1 $ ESEL,R,CENT,Z,(0.0+0.0007)/2 $ BFE,ALL,HGEN,1,700.0/4.375000000000001e-07 $ ALLSEL
TIME,1.52471219 $ KBC,1 $ AUTOTS,OFF $ DELTIM,0.001 $ SOLVE
ESEL,S,MAT,,1 $ ESEL,R,CENT,Z,(0.0+0.0007)/2 $ BFE,ALL,HGEN,1,280.0/4.375000000000001e-07 $ ALLSEL
TIME,1.525165613 $ KBC,1 $ AUTOTS,OFF $ DELTIM,5.6677874999994104e-05 $ SOLVE
ESEL,S,MAT,,1 $ ESEL,R,CENT,Z,(0.0+0.0007)/2 $ BFE,ALL,HGEN,1,84.0/4.375000000000001e-07 $ ALLSEL
TIME,1.87516815 $ KBC,1 $ AUTOTS,OFF $ DELTIM,0.001 $ SOLVE
ESEL,S,MAT,,1 $ ESEL,R,CENT,Z,(0.0+0.0007)/2 $ BFE,ALL,HGEN,1,700.0/4.375000000000001e-07 $ ALLSEL
TIME,1.909133884 $ KBC,1 $ AUTOTS,OFF $ DELTIM,0.001 $ SOLVE
ESEL,S,MAT,,1 $ ESEL,R,CENT,Z,(0.0+0.0007)/2 $ BFE,ALL,HGEN,1,84.0/4.375000000000001e-07 $ ALLSEL
TIME,2.259136421 $ KBC,1 $ AUTOTS,OFF $ DELTIM,0.001 $ SOLVE
ESEL,S,MAT,,1 $ ESEL,R,CENT,Z,(0.0+0.0007)/2 $ BFE,ALL,HGEN,1,140.0/4.375000000000001e-07 $ ALLSEL
TIME,2.259285608 $ KBC,1 $ AUTOTS,OFF $ DELTIM,1.8648374999985506e-05 $ SOLVE
ESEL,S,MAT,,1 $ ESEL,R,CENT,Z,(0.0+0.0007)/2 $ BFE,ALL,HGEN,1,140.0/4.375000000000001e-07 $ ALLSEL
TIME,2.259582555 $ KBC,1 $ AUTOTS,OFF $ DELTIM,3.7118375000033677e-05 $ SOLVE
ESEL,S,MAT,,1 $ ESEL,R,CENT,Z,(0.0+0.0007)/2 $ BFE,ALL,HGEN,1,84.0/4.375000000000001e-07 $ ALLSEL
TIME,2.609585092 $ KBC,1 $ AUTOTS,OFF $ DELTIM,0.001 $ SOLVE
ESEL,S,MAT,,1 $ ESEL,R,CENT,Z,(0.0+0.0007)/2 $ BFE,ALL,HGEN,1,700.0/4.375000000000001e-07 $ ALLSEL
TIME,2.648760799 $ KBC,1 $ AUTOTS,OFF $ DELTIM,0.001 $ SOLVE
ESEL,S,MAT,,1 $ ESEL,R,CENT,Z,(0.0+0.0007)/2 $ BFE,ALL,HGEN,1,84.0/4.375000000000001e-07 $ ALLSEL
TIME,2.998763336 $ KBC,1 $ AUTOTS,OFF $ DELTIM,0.001 $ SOLVE
ESEL,S,MAT,,1 $ ESEL,R,CENT,Z,(0.0+0.0007)/2 $ BFE,ALL,HGEN,1,280.0/4.375000000000001e-07 $ ALLSEL
TIME,2.999611547 $ KBC,1 $ AUTOTS,OFF $ DELTIM,0.00010602637500001233 $ SOLVE
ESEL,S,MAT,,1 $ ESEL,R,CENT,Z,(0.0+0.0007)/2 $ BFE,ALL,HGEN,1,700.0/4.375000000000001e-07 $ ALLSEL
TIME,3.024520243 $ KBC,1 $ AUTOTS,OFF $ DELTIM,0.001 $ SOLVE
ESEL,S,MAT,,1 $ ESEL,R,CENT,Z,(0.0+0.0007)/2 $ BFE,ALL,HGEN,1,700.0/4.375000000000001e-07 $ ALLSEL
TIME,3.036972312 $ KBC,1 $ AUTOTS,OFF $ DELTIM,0.001 $ SOLVE
ESEL,S,MAT,,1 $ ESEL,R,CENT,Z,(0.0+0.0007)/2 $ BFE,ALL,HGEN,1,280.0/4.375000000000001e-07 $ ALLSEL
TIME,3.037425735 $ KBC,1 $ AUTOTS,OFF $ DELTIM,5.667787499996635e-05 $ SOLVE
ESEL,S,MAT,,1 $ ESEL,R,CENT,Z,(0.0+0.0007)/2 $ BFE,ALL,HGEN,1,84.0/4.375000000000001e-07 $ ALLSEL
TIME,3.387428272 $ KBC,1 $ AUTOTS,OFF $ DELTIM,0.001 $ SOLVE
ESEL,S,MAT,,1 $ ESEL,R,CENT,Z,(0.0+0.0007)/2 $ BFE,ALL,HGEN,1,700.0/4.375000000000001e-07 $ ALLSEL
TIME,3.421394005 $ KBC,1 $ AUTOTS,OFF $ DELTIM,0.001 $ SOLVE
ESEL,S,MAT,,1 $ ESEL,R,CENT,Z,(0.0+0.0007)/2 $ BFE,ALL,HGEN,1,84.0/4.375000000000001e-07 $ ALLSEL
TIME,3.771396542 $ KBC,1 $ AUTOTS,OFF $ DELTIM,0.001 $ SOLVE
ESEL,S,MAT,,1 $ ESEL,R,CENT,Z,(0.0+0.0007)/2 $ BFE,ALL,HGEN,1,140.0/4.375000000000001e-07 $ ALLSEL
TIME,3.77154573 $ KBC,1 $ AUTOTS,OFF $ DELTIM,1.864849999999585e-05 $ SOLVE
ESEL,S,MAT,,1 $ ESEL,R,CENT,Z,(0.0+0.0007)/2 $ BFE,ALL,HGEN,1,140.0/4.375000000000001e-07 $ ALLSEL
TIME,3.771842677 $ KBC,1 $ AUTOTS,OFF $ DELTIM,3.7118374999978165e-05 $ SOLVE
ESEL,S,MAT,,1 $ ESEL,R,CENT,Z,(0.0+0.0007)/2 $ BFE,ALL,HGEN,1,84.0/4.375000000000001e-07 $ ALLSEL
TIME,4.121845214 $ KBC,1 $ AUTOTS,OFF $ DELTIM,0.001 $ SOLVE
ESEL,S,MAT,,1 $ ESEL,R,CENT,Z,(0.0+0.0007)/2 $ BFE,ALL,HGEN,1,700.0/4.375000000000001e-07 $ ALLSEL
TIME,4.161020921 $ KBC,1 $ AUTOTS,OFF $ DELTIM,0.001 $ SOLVE
ESEL,S,MAT,,1 $ ESEL,R,CENT,Z,(0.0+0.0007)/2 $ BFE,ALL,HGEN,1,84.0/4.375000000000001e-07 $ ALLSEL
TIME,4.511023458 $ KBC,1 $ AUTOTS,OFF $ DELTIM,0.001 $ SOLVE
ESEL,S,MAT,,1 $ ESEL,R,CENT,Z,(0.0+0.0007)/2 $ BFE,ALL,HGEN,1,280.0/4.375000000000001e-07 $ ALLSEL
TIME,4.511871668 $ KBC,1 $ AUTOTS,OFF $ DELTIM,0.00010602625000000199 $ SOLVE
ESEL,S,MAT,,1 $ ESEL,R,CENT,Z,(0.0+0.0007)/2 $ BFE,ALL,HGEN,1,700.0/4.375000000000001e-07 $ ALLSEL
TIME,4.536780365 $ KBC,1 $ AUTOTS,OFF $ DELTIM,0.001 $ SOLVE
ESEL,S,MAT,,1 $ ESEL,R,CENT,Z,(0.0+0.0007)/2 $ BFE,ALL,HGEN,1,700.0/4.375000000000001e-07 $ ALLSEL
TIME,4.549232433 $ KBC,1 $ AUTOTS,OFF $ DELTIM,0.001 $ SOLVE
ESEL,S,MAT,,1 $ ESEL,R,CENT,Z,(0.0+0.0007)/2 $ BFE,ALL,HGEN,1,280.0/4.375000000000001e-07 $ ALLSEL
TIME,4.549685856 $ KBC,1 $ AUTOTS,OFF $ DELTIM,5.667787499996635e-05 $ SOLVE
ESEL,S,MAT,,1 $ ESEL,R,CENT,Z,(0.0+0.0007)/2 $ BFE,ALL,HGEN,1,84.0/4.375000000000001e-07 $ ALLSEL
TIME,4.899688393 $ KBC,1 $ AUTOTS,OFF $ DELTIM,0.001 $ SOLVE
ESEL,S,MAT,,1 $ ESEL,R,CENT,Z,(0.0+0.0007)/2 $ BFE,ALL,HGEN,1,700.0/4.375000000000001e-07 $ ALLSEL
TIME,4.933654127 $ KBC,1 $ AUTOTS,OFF $ DELTIM,0.001 $ SOLVE
ESEL,S,MAT,,1 $ ESEL,R,CENT,Z,(0.0+0.0007)/2 $ BFE,ALL,HGEN,1,84.0/4.375000000000001e-07 $ ALLSEL
TIME,5.283656664 $ KBC,1 $ AUTOTS,OFF $ DELTIM,0.001 $ SOLVE
ESEL,S,MAT,,1 $ ESEL,R,CENT,Z,(0.0+0.0007)/2 $ BFE,ALL,HGEN,1,140.0/4.375000000000001e-07 $ ALLSEL
TIME,5.283805851 $ KBC,1 $ AUTOTS,OFF $ DELTIM,1.864837500009653e-05 $ SOLVE
ESEL,S,MAT,,1 $ ESEL,R,CENT,Z,(0.0+0.0007)/2 $ BFE,ALL,HGEN,1,140.0/4.375000000000001e-07 $ ALLSEL
TIME,5.284102799 $ KBC,1 $ AUTOTS,OFF $ DELTIM,3.711849999998851e-05 $ SOLVE
ESEL,S,MAT,,1 $ ESEL,R,CENT,Z,(0.0+0.0007)/2 $ BFE,ALL,HGEN,1,84.0/4.375000000000001e-07 $ ALLSEL
TIME,5.634105336 $ KBC,1 $ AUTOTS,OFF $ DELTIM,0.001 $ SOLVE
ESEL,S,MAT,,1 $ ESEL,R,CENT,Z,(0.0+0.0007)/2 $ BFE,ALL,HGEN,1,700.0/4.375000000000001e-07 $ ALLSEL
TIME,5.673281043 $ KBC,1 $ AUTOTS,OFF $ DELTIM,0.001 $ SOLVE
ESEL,S,MAT,,1 $ ESEL,R,CENT,Z,(0.0+0.0007)/2 $ BFE,ALL,HGEN,1,84.0/4.375000000000001e-07 $ ALLSEL
TIME,6.02328358 $ KBC,1 $ AUTOTS,OFF $ DELTIM,0.001 $ SOLVE
ESEL,S,MAT,,1 $ ESEL,R,CENT,Z,(0.0+0.0007)/2 $ BFE,ALL,HGEN,1,280.0/4.375000000000001e-07 $ ALLSEL
TIME,6.02413179 $ KBC,1 $ AUTOTS,OFF $ DELTIM,0.00010602625000000199 $ SOLVE
ESEL,S,MAT,,1 $ ESEL,R,CENT,Z,(0.0+0.0007)/2 $ BFE,ALL,HGEN,1,700.0/4.375000000000001e-07 $ ALLSEL
TIME,6.049040486 $ KBC,1 $ AUTOTS,OFF $ DELTIM,0.001 $ SOLVE
ESEL,S,MAT,,1 $ ESEL,R,CENT,Z,(0.0+0.0007)/2 $ BFE,ALL,HGEN,1,700.0/4.375000000000001e-07 $ ALLSEL
TIME,6.061492555 $ KBC,1 $ AUTOTS,OFF $ DELTIM,0.001 $ SOLVE
ESEL,S,MAT,,1 $ ESEL,R,CENT,Z,(0.0+0.0007)/2 $ BFE,ALL,HGEN,1,280.0/4.375000000000001e-07 $ ALLSEL
TIME,6.061945978 $ KBC,1 $ AUTOTS,OFF $ DELTIM,5.667787499996635e-05 $ SOLVE
ESEL,S,MAT,,1 $ ESEL,R,CENT,Z,(0.0+0.0007)/2 $ BFE,ALL,HGEN,1,84.0/4.375000000000001e-07 $ ALLSEL
TIME,6.411948515 $ KBC,1 $ AUTOTS,OFF $ DELTIM,0.001 $ SOLVE
ESEL,S,MAT,,1 $ ESEL,R,CENT,Z,(0.0+0.0007)/2 $ BFE,ALL,HGEN,1,700.0/4.375000000000001e-07 $ ALLSEL
TIME,6.445914249 $ KBC,1 $ AUTOTS,OFF $ DELTIM,0.001 $ SOLVE
ESEL,S,MAT,,1 $ ESEL,R,CENT,Z,(0.0+0.0007)/2 $ BFE,ALL,HGEN,1,84.0/4.375000000000001e-07 $ ALLSEL
TIME,6.795916786 $ KBC,1 $ AUTOTS,OFF $ DELTIM,0.001 $ SOLVE
ESEL,S,MAT,,1 $ ESEL,R,CENT,Z,(0.0+0.0007)/2 $ BFE,ALL,HGEN,1,140.0/4.375000000000001e-07 $ ALLSEL
TIME,6.796065973 $ KBC,1 $ AUTOTS,OFF $ DELTIM,1.8648374999985506e-05 $ SOLVE
ESEL,S,MAT,,1 $ ESEL,R,CENT,Z,(0.0+0.0007)/2 $ BFE,ALL,HGEN,1,140.0/4.375000000000001e-07 $ ALLSEL
TIME,6.79636292 $ KBC,1 $ AUTOTS,OFF $ DELTIM,3.7118374999978165e-05 $ SOLVE
ESEL,S,MAT,,1 $ ESEL,R,CENT,Z,(0.0+0.0007)/2 $ BFE,ALL,HGEN,1,84.0/4.375000000000001e-07 $ ALLSEL
TIME,7.146365457 $ KBC,1 $ AUTOTS,OFF $ DELTIM,0.001 $ SOLVE
ESEL,S,MAT,,1 $ ESEL,R,CENT,Z,(0.0+0.0007)/2 $ BFE,ALL,HGEN,1,700.0/4.375000000000001e-07 $ ALLSEL
TIME,7.185541164 $ KBC,1 $ AUTOTS,OFF $ DELTIM,0.001 $ SOLVE
ESEL,S,MAT,,1 $ ESEL,R,CENT,Z,(0.0+0.0007)/2 $ BFE,ALL,HGEN,1,84.0/4.375000000000001e-07 $ ALLSEL
TIME,7.535543701 $ KBC,1 $ AUTOTS,OFF $ DELTIM,0.001 $ SOLVE
ESEL,S,MAT,,1 $ ESEL,R,CENT,Z,(0.0+0.0007)/2 $ BFE,ALL,HGEN,1,280.0/4.375000000000001e-07 $ ALLSEL
TIME,7.536391912 $ KBC,1 $ AUTOTS,OFF $ DELTIM,0.00010602637500001233 $ SOLVE
ESEL,S,MAT,,1 $ ESEL,R,CENT,Z,(0.0+0.0007)/2 $ BFE,ALL,HGEN,1,700.0/4.375000000000001e-07 $ ALLSEL
TIME,7.561300608 $ KBC,1 $ AUTOTS,OFF $ DELTIM,0.001 $ SOLVE
ESEL,S,MAT,,1 $ ESEL,R,CENT,Z,(0.0+0.0007)/2 $ BFE,ALL,HGEN,1,700.0/4.375000000000001e-07 $ ALLSEL
TIME,7.573752676 $ KBC,1 $ AUTOTS,OFF $ DELTIM,0.001 $ SOLVE
ESEL,S,MAT,,1 $ ESEL,R,CENT,Z,(0.0+0.0007)/2 $ BFE,ALL,HGEN,1,280.0/4.375000000000001e-07 $ ALLSEL
TIME,7.5742061 $ KBC,1 $ AUTOTS,OFF $ DELTIM,5.667799999997669e-05 $ SOLVE
ESEL,S,MAT,,1 $ ESEL,R,CENT,Z,(0.0+0.0007)/2 $ BFE,ALL,HGEN,1,84.0/4.375000000000001e-07 $ ALLSEL
TIME,7.924208637 $ KBC,1 $ AUTOTS,OFF $ DELTIM,0.001 $ SOLVE
ESEL,S,MAT,,1 $ ESEL,R,CENT,Z,(0.0+0.0007)/2 $ BFE,ALL,HGEN,1,700.0/4.375000000000001e-07 $ ALLSEL
TIME,7.95817437 $ KBC,1 $ AUTOTS,OFF $ DELTIM,0.001 $ SOLVE
ESEL,S,MAT,,1 $ ESEL,R,CENT,Z,(0.0+0.0007)/2 $ BFE,ALL,HGEN,1,84.0/4.375000000000001e-07 $ ALLSEL
TIME,8.308176907 $ KBC,1 $ AUTOTS,OFF $ DELTIM,0.001 $ SOLVE
ESEL,S,MAT,,1 $ ESEL,R,CENT,Z,(0.0+0.0007)/2 $ BFE,ALL,HGEN,1,140.0/4.375000000000001e-07 $ ALLSEL
TIME,8.308326094 $ KBC,1 $ AUTOTS,OFF $ DELTIM,1.8648374999985506e-05 $ SOLVE
ESEL,S,MAT,,1 $ ESEL,R,CENT,Z,(0.0+0.0007)/2 $ BFE,ALL,HGEN,1,140.0/4.375000000000001e-07 $ ALLSEL
TIME,8.308623042 $ KBC,1 $ AUTOTS,OFF $ DELTIM,3.711850000009953e-05 $ SOLVE
ESEL,S,MAT,,1 $ ESEL,R,CENT,Z,(0.0+0.0007)/2 $ BFE,ALL,HGEN,1,84.0/4.375000000000001e-07 $ ALLSEL
TIME,8.658625579 $ KBC,1 $ AUTOTS,OFF $ DELTIM,0.001 $ SOLVE
ESEL,S,MAT,,1 $ ESEL,R,CENT,Z,(0.0+0.0007)/2 $ BFE,ALL,HGEN,1,700.0/4.375000000000001e-07 $ ALLSEL
TIME,8.697801286 $ KBC,1 $ AUTOTS,OFF $ DELTIM,0.001 $ SOLVE
ESEL,S,MAT,,1 $ ESEL,R,CENT,Z,(0.0+0.0007)/2 $ BFE,ALL,HGEN,1,84.0/4.375000000000001e-07 $ ALLSEL
TIME,9.047803823 $ KBC,1 $ AUTOTS,OFF $ DELTIM,0.001 $ SOLVE
ESEL,S,MAT,,1 $ ESEL,R,CENT,Z,(0.0+0.0007)/2 $ BFE,ALL,HGEN,1,280.0/4.375000000000001e-07 $ ALLSEL
TIME,9.048652033 $ KBC,1 $ AUTOTS,OFF $ DELTIM,0.00010602624999989096 $ SOLVE
ESEL,S,MAT,,1 $ ESEL,R,CENT,Z,(0.0+0.0007)/2 $ BFE,ALL,HGEN,1,700.0/4.375000000000001e-07 $ ALLSEL
TIME,9.07356073 $ KBC,1 $ AUTOTS,OFF $ DELTIM,0.001 $ SOLVE
ESEL,S,MAT,,1 $ ESEL,R,CENT,Z,(0.0+0.0007)/2 $ BFE,ALL,HGEN,1,700.0/4.375000000000001e-07 $ ALLSEL
TIME,9.086012798 $ KBC,1 $ AUTOTS,OFF $ DELTIM,0.001 $ SOLVE
ESEL,S,MAT,,1 $ ESEL,R,CENT,Z,(0.0+0.0007)/2 $ BFE,ALL,HGEN,1,280.0/4.375000000000001e-07 $ ALLSEL
TIME,9.086466221 $ KBC,1 $ AUTOTS,OFF $ DELTIM,5.667787499996635e-05 $ SOLVE
ESEL,S,MAT,,1 $ ESEL,R,CENT,Z,(0.0+0.0007)/2 $ BFE,ALL,HGEN,1,84.0/4.375000000000001e-07 $ ALLSEL
TIME,9.436468758 $ KBC,1 $ AUTOTS,OFF $ DELTIM,0.001 $ SOLVE
ESEL,S,MAT,,1 $ ESEL,R,CENT,Z,(0.0+0.0007)/2 $ BFE,ALL,HGEN,1,700.0/4.375000000000001e-07 $ ALLSEL
TIME,9.470434492 $ KBC,1 $ AUTOTS,OFF $ DELTIM,0.001 $ SOLVE
ESEL,S,MAT,,1 $ ESEL,R,CENT,Z,(0.0+0.0007)/2 $ BFE,ALL,HGEN,1,84.0/4.375000000000001e-07 $ ALLSEL
TIME,9.820437029 $ KBC,1 $ AUTOTS,OFF $ DELTIM,0.001 $ SOLVE
ESEL,S,MAT,,1 $ ESEL,R,CENT,Z,(0.0+0.0007)/2 $ BFE,ALL,HGEN,1,140.0/4.375000000000001e-07 $ ALLSEL
TIME,9.820586216 $ KBC,1 $ AUTOTS,OFF $ DELTIM,1.8648374999985506e-05 $ SOLVE
ESEL,S,MAT,,1 $ ESEL,R,CENT,Z,(0.0+0.0007)/2 $ BFE,ALL,HGEN,1,140.0/4.375000000000001e-07 $ ALLSEL
TIME,9.820883163 $ KBC,1 $ AUTOTS,OFF $ DELTIM,3.711837499986714e-05 $ SOLVE
ESEL,S,MAT,,1 $ ESEL,R,CENT,Z,(0.0+0.0007)/2 $ BFE,ALL,HGEN,1,84.0/4.375000000000001e-07 $ ALLSEL
TIME,10.1708857 $ KBC,1 $ AUTOTS,OFF $ DELTIM,0.001 $ SOLVE
ESEL,S,MAT,,1 $ ESEL,R,CENT,Z,(0.0+0.0007)/2 $ BFE,ALL,HGEN,1,700.0/4.375000000000001e-07 $ ALLSEL
TIME,10.210061407 $ KBC,1 $ AUTOTS,OFF $ DELTIM,0.001 $ SOLVE
ESEL,S,MAT,,1 $ ESEL,R,CENT,Z,(0.0+0.0007)/2 $ BFE,ALL,HGEN,1,84.0/4.375000000000001e-07 $ ALLSEL
TIME,10.560063944 $ KBC,1 $ AUTOTS,OFF $ DELTIM,0.001 $ SOLVE
ESEL,S,MAT,,1 $ ESEL,R,CENT,Z,(0.0+0.0007)/2 $ BFE,ALL,HGEN,1,280.0/4.375000000000001e-07 $ ALLSEL
TIME,10.560912155 $ KBC,1 $ AUTOTS,OFF $ DELTIM,0.00010602637500012335 $ SOLVE
ESEL,S,MAT,,1 $ ESEL,R,CENT,Z,(0.0+0.0007)/2 $ BFE,ALL,HGEN,1,700.0/4.375000000000001e-07 $ ALLSEL
TIME,10.585820851 $ KBC,1 $ AUTOTS,OFF $ DELTIM,0.001 $ SOLVE
ESEL,S,MAT,,1 $ ESEL,R,CENT,Z,(0.0+0.0007)/2 $ BFE,ALL,HGEN,1,700.0/4.375000000000001e-07 $ ALLSEL
TIME,10.59827292 $ KBC,1 $ AUTOTS,OFF $ DELTIM,0.001 $ SOLVE
ESEL,S,MAT,,1 $ ESEL,R,CENT,Z,(0.0+0.0007)/2 $ BFE,ALL,HGEN,1,280.0/4.375000000000001e-07 $ ALLSEL
TIME,10.598726343 $ KBC,1 $ AUTOTS,OFF $ DELTIM,5.667787499996635e-05 $ SOLVE
ESEL,S,MAT,,1 $ ESEL,R,CENT,Z,(0.0+0.0007)/2 $ BFE,ALL,HGEN,1,84.0/4.375000000000001e-07 $ ALLSEL
TIME,10.94872888 $ KBC,1 $ AUTOTS,OFF $ DELTIM,0.001 $ SOLVE
ESEL,S,MAT,,1 $ ESEL,R,CENT,Z,(0.0+0.0007)/2 $ BFE,ALL,HGEN,1,700.0/4.375000000000001e-07 $ ALLSEL
TIME,10.982694613 $ KBC,1 $ AUTOTS,OFF $ DELTIM,0.001 $ SOLVE
ESEL,S,MAT,,1 $ ESEL,R,CENT,Z,(0.0+0.0007)/2 $ BFE,ALL,HGEN,1,84.0/4.375000000000001e-07 $ ALLSEL
TIME,11.33269715 $ KBC,1 $ AUTOTS,OFF $ DELTIM,0.001 $ SOLVE
ESEL,S,MAT,,1 $ ESEL,R,CENT,Z,(0.0+0.0007)/2 $ BFE,ALL,HGEN,1,140.0/4.375000000000001e-07 $ ALLSEL
TIME,11.332846338 $ KBC,1 $ AUTOTS,OFF $ DELTIM,1.864849999999585e-05 $ SOLVE
ESEL,S,MAT,,1 $ ESEL,R,CENT,Z,(0.0+0.0007)/2 $ BFE,ALL,HGEN,1,140.0/4.375000000000001e-07 $ ALLSEL
TIME,11.333143285 $ KBC,1 $ AUTOTS,OFF $ DELTIM,3.711837500008919e-05 $ SOLVE
ESEL,S,MAT,,1 $ ESEL,R,CENT,Z,(0.0+0.0007)/2 $ BFE,ALL,HGEN,1,84.0/4.375000000000001e-07 $ ALLSEL
TIME,11.683145822 $ KBC,1 $ AUTOTS,OFF $ DELTIM,0.001 $ SOLVE
ESEL,S,MAT,,1 $ ESEL,R,CENT,Z,(0.0+0.0007)/2 $ BFE,ALL,HGEN,1,700.0/4.375000000000001e-07 $ ALLSEL
TIME,11.722321529 $ KBC,1 $ AUTOTS,OFF $ DELTIM,0.001 $ SOLVE
ESEL,S,MAT,,1 $ ESEL,R,CENT,Z,(0.0+0.0007)/2 $ BFE,ALL,HGEN,1,84.0/4.375000000000001e-07 $ ALLSEL
TIME,12.072324066 $ KBC,1 $ AUTOTS,OFF $ DELTIM,0.001 $ SOLVE
ESEL,S,MAT,,1 $ ESEL,R,CENT,Z,(0.0+0.0007)/2 $ BFE,ALL,HGEN,1,280.0/4.375000000000001e-07 $ ALLSEL
TIME,12.073172276 $ KBC,1 $ AUTOTS,OFF $ DELTIM,0.00010602624999989096 $ SOLVE
ESEL,S,MAT,,1 $ ESEL,R,CENT,Z,(0.0+0.0007)/2 $ BFE,ALL,HGEN,1,700.0/4.375000000000001e-07 $ ALLSEL
TIME,12.098080973 $ KBC,1 $ AUTOTS,OFF $ DELTIM,0.001 $ SOLVE
ESEL,S,MAT,,1 $ ESEL,R,CENT,Z,(0.0+0.0007)/2 $ BFE,ALL,HGEN,1,700.0/4.375000000000001e-07 $ ALLSEL
TIME,12.110533041 $ KBC,1 $ AUTOTS,OFF $ DELTIM,0.001 $ SOLVE
ESEL,S,MAT,,1 $ ESEL,R,CENT,Z,(0.0+0.0007)/2 $ BFE,ALL,HGEN,1,280.0/4.375000000000001e-07 $ ALLSEL
TIME,12.110986464 $ KBC,1 $ AUTOTS,OFF $ DELTIM,5.667787499996635e-05 $ SOLVE
ESEL,S,MAT,,1 $ ESEL,R,CENT,Z,(0.0+0.0007)/2 $ BFE,ALL,HGEN,1,84.0/4.375000000000001e-07 $ ALLSEL
TIME,12.460989001 $ KBC,1 $ AUTOTS,OFF $ DELTIM,0.001 $ SOLVE
ESEL,S,MAT,,1 $ ESEL,R,CENT,Z,(0.0+0.0007)/2 $ BFE,ALL,HGEN,1,700.0/4.375000000000001e-07 $ ALLSEL
TIME,12.494954735 $ KBC,1 $ AUTOTS,OFF $ DELTIM,0.001 $ SOLVE
ESEL,S,MAT,,1 $ ESEL,R,CENT,Z,(0.0+0.0007)/2 $ BFE,ALL,HGEN,1,84.0/4.375000000000001e-07 $ ALLSEL
TIME,12.844957272 $ KBC,1 $ AUTOTS,OFF $ DELTIM,0.001 $ SOLVE
ESEL,S,MAT,,1 $ ESEL,R,CENT,Z,(0.0+0.0007)/2 $ BFE,ALL,HGEN,1,140.0/4.375000000000001e-07 $ ALLSEL
TIME,12.845106459 $ KBC,1 $ AUTOTS,OFF $ DELTIM,1.8648374999985506e-05 $ SOLVE
ESEL,S,MAT,,1 $ ESEL,R,CENT,Z,(0.0+0.0007)/2 $ BFE,ALL,HGEN,1,140.0/4.375000000000001e-07 $ ALLSEL
TIME,12.845403407 $ KBC,1 $ AUTOTS,OFF $ DELTIM,3.7118499999877486e-05 $ SOLVE
ESEL,S,MAT,,1 $ ESEL,R,CENT,Z,(0.0+0.0007)/2 $ BFE,ALL,HGEN,1,84.0/4.375000000000001e-07 $ ALLSEL
TIME,13.195405944 $ KBC,1 $ AUTOTS,OFF $ DELTIM,0.001 $ SOLVE
ESEL,S,MAT,,1 $ ESEL,R,CENT,Z,(0.0+0.0007)/2 $ BFE,ALL,HGEN,1,700.0/4.375000000000001e-07 $ ALLSEL
TIME,13.234581651 $ KBC,1 $ AUTOTS,OFF $ DELTIM,0.001 $ SOLVE
ESEL,S,MAT,,1 $ ESEL,R,CENT,Z,(0.0+0.0007)/2 $ BFE,ALL,HGEN,1,84.0/4.375000000000001e-07 $ ALLSEL
TIME,13.584584188 $ KBC,1 $ AUTOTS,OFF $ DELTIM,0.001 $ SOLVE
ESEL,S,MAT,,1 $ ESEL,R,CENT,Z,(0.0+0.0007)/2 $ BFE,ALL,HGEN,1,280.0/4.375000000000001e-07 $ ALLSEL
TIME,13.585432398 $ KBC,1 $ AUTOTS,OFF $ DELTIM,0.00010602625000011301 $ SOLVE
ESEL,S,MAT,,1 $ ESEL,R,CENT,Z,(0.0+0.0007)/2 $ BFE,ALL,HGEN,1,700.0/4.375000000000001e-07 $ ALLSEL
TIME,13.610341094 $ KBC,1 $ AUTOTS,OFF $ DELTIM,0.001 $ SOLVE
ESEL,S,MAT,,1 $ ESEL,R,CENT,Z,(0.0+0.0007)/2 $ BFE,ALL,HGEN,1,700.0/4.375000000000001e-07 $ ALLSEL
TIME,13.622793163 $ KBC,1 $ AUTOTS,OFF $ DELTIM,0.001 $ SOLVE
ESEL,S,MAT,,1 $ ESEL,R,CENT,Z,(0.0+0.0007)/2 $ BFE,ALL,HGEN,1,280.0/4.375000000000001e-07 $ ALLSEL
TIME,13.623246586 $ KBC,1 $ AUTOTS,OFF $ DELTIM,5.667787499996635e-05 $ SOLVE
ESEL,S,MAT,,1 $ ESEL,R,CENT,Z,(0.0+0.0007)/2 $ BFE,ALL,HGEN,1,84.0/4.375000000000001e-07 $ ALLSEL
TIME,13.973249123 $ KBC,1 $ AUTOTS,OFF $ DELTIM,0.001 $ SOLVE
ESEL,S,MAT,,1 $ ESEL,R,CENT,Z,(0.0+0.0007)/2 $ BFE,ALL,HGEN,1,700.0/4.375000000000001e-07 $ ALLSEL
TIME,14.007214857 $ KBC,1 $ AUTOTS,OFF $ DELTIM,0.001 $ SOLVE
ESEL,S,MAT,,1 $ ESEL,R,CENT,Z,(0.0+0.0007)/2 $ BFE,ALL,HGEN,1,84.0/4.375000000000001e-07 $ ALLSEL
TIME,14.357217394 $ KBC,1 $ AUTOTS,OFF $ DELTIM,0.001 $ SOLVE
ESEL,S,MAT,,1 $ ESEL,R,CENT,Z,(0.0+0.0007)/2 $ BFE,ALL,HGEN,1,140.0/4.375000000000001e-07 $ ALLSEL
TIME,14.357366581 $ KBC,1 $ AUTOTS,OFF $ DELTIM,1.864837500020755e-05 $ SOLVE
ESEL,S,MAT,,1 $ ESEL,R,CENT,Z,(0.0+0.0007)/2 $ BFE,ALL,HGEN,1,140.0/4.375000000000001e-07 $ ALLSEL
TIME,14.357663528 $ KBC,1 $ AUTOTS,OFF $ DELTIM,3.711837499986714e-05 $ SOLVE
ESEL,S,MAT,,1 $ ESEL,R,CENT,Z,(0.0+0.0007)/2 $ BFE,ALL,HGEN,1,84.0/4.375000000000001e-07 $ ALLSEL
TIME,14.707666065 $ KBC,1 $ AUTOTS,OFF $ DELTIM,0.001 $ SOLVE
ESEL,S,MAT,,1 $ ESEL,R,CENT,Z,(0.0+0.0007)/2 $ BFE,ALL,HGEN,1,700.0/4.375000000000001e-07 $ ALLSEL
TIME,14.746841772 $ KBC,1 $ AUTOTS,OFF $ DELTIM,0.001 $ SOLVE
ESEL,S,MAT,,1 $ ESEL,R,CENT,Z,(0.0+0.0007)/2 $ BFE,ALL,HGEN,1,84.0/4.375000000000001e-07 $ ALLSEL
TIME,15.096844309 $ KBC,1 $ AUTOTS,OFF $ DELTIM,0.001 $ SOLVE
ESEL,S,MAT,,1 $ ESEL,R,CENT,Z,(0.0+0.0007)/2 $ BFE,ALL,HGEN,1,280.0/4.375000000000001e-07 $ ALLSEL
TIME,15.09769252 $ KBC,1 $ AUTOTS,OFF $ DELTIM,0.00010602637500012335 $ SOLVE
ESEL,S,MAT,,1 $ ESEL,R,CENT,Z,(0.0+0.0007)/2 $ BFE,ALL,HGEN,1,700.0/4.375000000000001e-07 $ ALLSEL
TIME,15.122601216 $ KBC,1 $ AUTOTS,OFF $ DELTIM,0.001 $ SOLVE
FINISH

/POST26
NUMVAR,200
NSOL,2,NMON,TEMP
/OUTPUT,mixtral8x7b_pic_transient_L4seq4096_dt1ms,csv
PRVAR,2
/OUTPUT
FINISH
