/PREP7
! ===== ICCAD2026 OIO3D GPU/EIC/aPIC transient (Coenen et al. TCPMT 2026 params) =====
MP,KXX,1,150.0 $ MP,KYY,1,150.0 $ MP,KZZ,1,150.0 $ MP,DENS,1,2330 $ MP,C,1,700
MP,KXX,2,5.0 $ MP,KYY,2,5.0 $ MP,KZZ,2,5.0 $ MP,DENS,2,2500 $ MP,C,2,800
MP,KXX,3,80.0 $ MP,KYY,3,80.0 $ MP,KZZ,3,80.0 $ MP,DENS,3,2300 $ MP,C,3,700
MP,KXX,4,2.55 $ MP,KYY,4,2.55 $ MP,KZZ,4,2.55 $ MP,DENS,4,2500 $ MP,C,4,800
ET,1,SOLID70
ESIZE,0.025/20
BLOCK,0,0.025,0,0.025,0.0,0.0007 $ VSEL,S,LOC,Z,(0.0+0.0007)/2 $ VATT,1,,1 $ VMESH,ALL $ ALLSEL
BLOCK,0,0.025,0,0.025,0.0007,0.0007023999999999999 $ VSEL,S,LOC,Z,(0.0007+0.0007023999999999999)/2 $ VATT,2,,1 $ VMESH,ALL $ ALLSEL
BLOCK,0,0.025,0,0.025,0.0007023999999999999,0.0008024 $ VSEL,S,LOC,Z,(0.0007023999999999999+0.0008024)/2 $ VATT,1,,1 $ VMESH,ALL $ ALLSEL
BLOCK,0,0.025,0,0.025,0.0008024,0.0008047999999999999 $ VSEL,S,LOC,Z,(0.0008024+0.0008047999999999999)/2 $ VATT,2,,1 $ VMESH,ALL $ ALLSEL
BLOCK,0,0.025,0,0.025,0.0008047999999999999,0.0008548 $ VSEL,S,LOC,Z,(0.0008047999999999999+0.0008548)/2 $ VATT,3,,1 $ VMESH,ALL $ ALLSEL
BLOCK,0,0.025,0,0.025,0.0008548,0.0008571999999999999 $ VSEL,S,LOC,Z,(0.0008548+0.0008571999999999999)/2 $ VATT,4,,1 $ VMESH,ALL $ ALLSEL
BLOCK,0,0.025,0,0.025,0.0008571999999999999,0.0011572 $ VSEL,S,LOC,Z,(0.0008571999999999999+0.0011572)/2 $ VATT,1,,1 $ VMESH,ALL $ ALLSEL
ALLSEL $ NUMMRG,NODE,1e-9 $ NUMCMP,NODE
VOL_XPU=4.375000000000001e-07
ESEL,S,MAT,,1 $ ESEL,R,CENT,Z,(0.0007023999999999999+0.0008024)/2 $ BFE,ALL,HGEN,1,266.25/6.250000000000001e-08 $ ALLSEL
ESEL,S,MAT,,3 $ BFE,ALL,HGEN,1,70.625/3.1250000000000005e-08 $ ALLSEL
ASEL,S,LOC,Z,0.0 $ SFA,ALL,,CONV,70000.0,45.0 $ ALLSEL
ASEL,S,LOC,Z,0.0011572 $ SFA,ALL,,CONV,16000.0000,45.0 $ ALLSEL
NMON=NODE(0.025/2,0.025/2,(0.0008047999999999999+0.0008548)/2)
FINISH

/SOLU
ANTYPE,TRANS
TRNOPT,FULL
OUTRES,ALL,ALL
TIMINT,OFF
ESEL,S,MAT,,1 $ ESEL,R,CENT,Z,(0.0+0.0007)/2 $ BFE,ALL,HGEN,1,700.0/4.375000000000001e-07 $ ALLSEL
TIME,1e-3 $ KBC,1 $ SOLVE
TIMINT,ON
ESEL,S,MAT,,1 $ ESEL,R,CENT,Z,(0.0+0.0007)/2 $ BFE,ALL,HGEN,1,700.0/4.375000000000001e-07 $ ALLSEL
TIME,0.002347244 $ KBC,1 $ AUTOTS,ON $ DELTIM,0.0002934055,2.934055e-05,0.001173622 $ SOLVE
ESEL,S,MAT,,1 $ ESEL,R,CENT,Z,(0.0+0.0007)/2 $ BFE,ALL,HGEN,1,280.0/4.375000000000001e-07 $ ALLSEL
TIME,0.002502226 $ KBC,1 $ AUTOTS,ON $ DELTIM,1.9372750000000015e-05,1.9372750000000017e-06,7.749100000000006e-05 $ SOLVE
ESEL,S,MAT,,1 $ ESEL,R,CENT,Z,(0.0+0.0007)/2 $ BFE,ALL,HGEN,1,84.0/4.375000000000001e-07 $ ALLSEL
TIME,0.352504763 $ KBC,1 $ AUTOTS,ON $ DELTIM,0.043750317125,0.0043750317125,0.1750012685 $ SOLVE
ESEL,S,MAT,,1 $ ESEL,R,CENT,Z,(0.0+0.0007)/2 $ BFE,ALL,HGEN,1,700.0/4.375000000000001e-07 $ ALLSEL
TIME,0.361105793 $ KBC,1 $ AUTOTS,ON $ DELTIM,0.0010751287500000012,0.00010751287500000012,0.004300515000000005 $ SOLVE
ESEL,S,MAT,,1 $ ESEL,R,CENT,Z,(0.0+0.0007)/2 $ BFE,ALL,HGEN,1,84.0/4.375000000000001e-07 $ ALLSEL
TIME,0.71110833 $ KBC,1 $ AUTOTS,ON $ DELTIM,0.04375031712499999,0.0043750317125,0.17500126849999997 $ SOLVE
ESEL,S,MAT,,1 $ ESEL,R,CENT,Z,(0.0+0.0007)/2 $ BFE,ALL,HGEN,1,140.0/4.375000000000001e-07 $ ALLSEL
TIME,0.711149751 $ KBC,1 $ AUTOTS,ON $ DELTIM,1.25e-05,1.25e-06,5e-05 $ SOLVE
ESEL,S,MAT,,1 $ ESEL,R,CENT,Z,(0.0+0.0007)/2 $ BFE,ALL,HGEN,1,140.0/4.375000000000001e-07 $ ALLSEL
TIME,0.711230819 $ KBC,1 $ AUTOTS,ON $ DELTIM,1.25e-05,1.25e-06,5e-05 $ SOLVE
ESEL,S,MAT,,1 $ ESEL,R,CENT,Z,(0.0+0.0007)/2 $ BFE,ALL,HGEN,1,84.0/4.375000000000001e-07 $ ALLSEL
TIME,1.061233356 $ KBC,1 $ AUTOTS,ON $ DELTIM,0.04375031712500001,0.0043750317125000006,0.17500126850000003 $ SOLVE
ESEL,S,MAT,,1 $ ESEL,R,CENT,Z,(0.0+0.0007)/2 $ BFE,ALL,HGEN,1,700.0/4.375000000000001e-07 $ ALLSEL
TIME,1.071550206 $ KBC,1 $ AUTOTS,ON $ DELTIM,0.0012896062499999916,0.00012896062499999917,0.0051584249999999665 $ SOLVE
ESEL,S,MAT,,1 $ ESEL,R,CENT,Z,(0.0+0.0007)/2 $ BFE,ALL,HGEN,1,84.0/4.375000000000001e-07 $ ALLSEL
TIME,1.421552743 $ KBC,1 $ AUTOTS,ON $ DELTIM,0.04375031712499999,0.0043750317125,0.17500126849999997 $ SOLVE
ESEL,S,MAT,,1 $ ESEL,R,CENT,Z,(0.0+0.0007)/2 $ BFE,ALL,HGEN,1,280.0/4.375000000000001e-07 $ ALLSEL
TIME,1.421800826 $ KBC,1 $ AUTOTS,ON $ DELTIM,3.1010375000001256e-05,3.1010375000001255e-06,0.00012404150000000502 $ SOLVE
ESEL,S,MAT,,1 $ ESEL,R,CENT,Z,(0.0+0.0007)/2 $ BFE,ALL,HGEN,1,700.0/4.375000000000001e-07 $ ALLSEL
TIME,1.426495684 $ KBC,1 $ AUTOTS,ON $ DELTIM,0.0005868572500000169,5.868572500000169e-05,0.0023474290000000675 $ SOLVE
ESEL,S,MAT,,1 $ ESEL,R,CENT,Z,(0.0+0.0007)/2 $ BFE,ALL,HGEN,1,700.0/4.375000000000001e-07 $ ALLSEL
TIME,1.428842928 $ KBC,1 $ AUTOTS,ON $ DELTIM,0.00029340549999998244,2.9340549999998243e-05,0.0011736219999999298 $ SOLVE
ESEL,S,MAT,,1 $ ESEL,R,CENT,Z,(0.0+0.0007)/2 $ BFE,ALL,HGEN,1,280.0/4.375000000000001e-07 $ ALLSEL
TIME,1.42899791 $ KBC,1 $ AUTOTS,ON $ DELTIM,1.937275000002403e-05,1.937275000002403e-06,7.749100000009612e-05 $ SOLVE
ESEL,S,MAT,,1 $ ESEL,R,CENT,Z,(0.0+0.0007)/2 $ BFE,ALL,HGEN,1,84.0/4.375000000000001e-07 $ ALLSEL
TIME,1.779000447 $ KBC,1 $ AUTOTS,ON $ DELTIM,0.04375031712499999,0.0043750317125,0.17500126849999997 $ SOLVE
ESEL,S,MAT,,1 $ ESEL,R,CENT,Z,(0.0+0.0007)/2 $ BFE,ALL,HGEN,1,700.0/4.375000000000001e-07 $ ALLSEL
TIME,1.787601477 $ KBC,1 $ AUTOTS,ON $ DELTIM,0.0010751287499999873,0.00010751287499999874,0.004300514999999949 $ SOLVE
ESEL,S,MAT,,1 $ ESEL,R,CENT,Z,(0.0+0.0007)/2 $ BFE,ALL,HGEN,1,84.0/4.375000000000001e-07 $ ALLSEL
TIME,2.137604014 $ KBC,1 $ AUTOTS,ON $ DELTIM,0.04375031712499999,0.0043750317125,0.17500126849999997 $ SOLVE
ESEL,S,MAT,,1 $ ESEL,R,CENT,Z,(0.0+0.0007)/2 $ BFE,ALL,HGEN,1,140.0/4.375000000000001e-07 $ ALLSEL
TIME,2.137645435 $ KBC,1 $ AUTOTS,ON $ DELTIM,1.25e-05,1.25e-06,5e-05 $ SOLVE
ESEL,S,MAT,,1 $ ESEL,R,CENT,Z,(0.0+0.0007)/2 $ BFE,ALL,HGEN,1,140.0/4.375000000000001e-07 $ ALLSEL
TIME,2.137726503 $ KBC,1 $ AUTOTS,ON $ DELTIM,1.25e-05,1.25e-06,5e-05 $ SOLVE
ESEL,S,MAT,,1 $ ESEL,R,CENT,Z,(0.0+0.0007)/2 $ BFE,ALL,HGEN,1,84.0/4.375000000000001e-07 $ ALLSEL
TIME,2.48772904 $ KBC,1 $ AUTOTS,ON $ DELTIM,0.04375031712499999,0.0043750317125,0.17500126849999997 $ SOLVE
ESEL,S,MAT,,1 $ ESEL,R,CENT,Z,(0.0+0.0007)/2 $ BFE,ALL,HGEN,1,700.0/4.375000000000001e-07 $ ALLSEL
TIME,2.498045891 $ KBC,1 $ AUTOTS,ON $ DELTIM,0.0012896063749999742,0.0001289606374999974,0.005158425499999897 $ SOLVE
ESEL,S,MAT,,1 $ ESEL,R,CENT,Z,(0.0+0.0007)/2 $ BFE,ALL,HGEN,1,84.0/4.375000000000001e-07 $ ALLSEL
TIME,2.848048428 $ KBC,1 $ AUTOTS,ON $ DELTIM,0.04375031712499999,0.0043750317125,0.17500126849999997 $ SOLVE
ESEL,S,MAT,,1 $ ESEL,R,CENT,Z,(0.0+0.0007)/2 $ BFE,ALL,HGEN,1,280.0/4.375000000000001e-07 $ ALLSEL
TIME,2.84829651 $ KBC,1 $ AUTOTS,ON $ DELTIM,3.101025000001867e-05,3.101025000001867e-06,0.00012404100000007467 $ SOLVE
ESEL,S,MAT,,1 $ ESEL,R,CENT,Z,(0.0+0.0007)/2 $ BFE,ALL,HGEN,1,700.0/4.375000000000001e-07 $ ALLSEL
TIME,2.852991368 $ KBC,1 $ AUTOTS,ON $ DELTIM,0.0005868572500000169,5.868572500000169e-05,0.0023474290000000675 $ SOLVE
ESEL,S,MAT,,1 $ ESEL,R,CENT,Z,(0.0+0.0007)/2 $ BFE,ALL,HGEN,1,700.0/4.375000000000001e-07 $ ALLSEL
TIME,2.855338612 $ KBC,1 $ AUTOTS,ON $ DELTIM,0.0002934055000000102,2.934055000000102e-05,0.0011736220000000408 $ SOLVE
ESEL,S,MAT,,1 $ ESEL,R,CENT,Z,(0.0+0.0007)/2 $ BFE,ALL,HGEN,1,280.0/4.375000000000001e-07 $ ALLSEL
TIME,2.855493594 $ KBC,1 $ AUTOTS,ON $ DELTIM,1.937274999996852e-05,1.937274999996852e-06,7.749099999987408e-05 $ SOLVE
ESEL,S,MAT,,1 $ ESEL,R,CENT,Z,(0.0+0.0007)/2 $ BFE,ALL,HGEN,1,84.0/4.375000000000001e-07 $ ALLSEL
TIME,3.205496131 $ KBC,1 $ AUTOTS,ON $ DELTIM,0.04375031712499999,0.0043750317125,0.17500126849999997 $ SOLVE
ESEL,S,MAT,,1 $ ESEL,R,CENT,Z,(0.0+0.0007)/2 $ BFE,ALL,HGEN,1,700.0/4.375000000000001e-07 $ ALLSEL
TIME,3.214097161 $ KBC,1 $ AUTOTS,ON $ DELTIM,0.0010751287500000428,0.00010751287500000428,0.004300515000000171 $ SOLVE
ESEL,S,MAT,,1 $ ESEL,R,CENT,Z,(0.0+0.0007)/2 $ BFE,ALL,HGEN,1,84.0/4.375000000000001e-07 $ ALLSEL
TIME,3.564099698 $ KBC,1 $ AUTOTS,ON $ DELTIM,0.04375031712499999,0.0043750317125,0.17500126849999997 $ SOLVE
ESEL,S,MAT,,1 $ ESEL,R,CENT,Z,(0.0+0.0007)/2 $ BFE,ALL,HGEN,1,140.0/4.375000000000001e-07 $ ALLSEL
TIME,3.564141119 $ KBC,1 $ AUTOTS,ON $ DELTIM,1.25e-05,1.25e-06,5e-05 $ SOLVE
ESEL,S,MAT,,1 $ ESEL,R,CENT,Z,(0.0+0.0007)/2 $ BFE,ALL,HGEN,1,140.0/4.375000000000001e-07 $ ALLSEL
TIME,3.564222187 $ KBC,1 $ AUTOTS,ON $ DELTIM,1.25e-05,1.25e-06,5e-05 $ SOLVE
ESEL,S,MAT,,1 $ ESEL,R,CENT,Z,(0.0+0.0007)/2 $ BFE,ALL,HGEN,1,84.0/4.375000000000001e-07 $ ALLSEL
TIME,3.914224724 $ KBC,1 $ AUTOTS,ON $ DELTIM,0.04375031712499999,0.0043750317125,0.17500126849999997 $ SOLVE
ESEL,S,MAT,,1 $ ESEL,R,CENT,Z,(0.0+0.0007)/2 $ BFE,ALL,HGEN,1,700.0/4.375000000000001e-07 $ ALLSEL
TIME,3.924541575 $ KBC,1 $ AUTOTS,ON $ DELTIM,0.0012896063750000297,0.00012896063750000297,0.005158425500000119 $ SOLVE
ESEL,S,MAT,,1 $ ESEL,R,CENT,Z,(0.0+0.0007)/2 $ BFE,ALL,HGEN,1,84.0/4.375000000000001e-07 $ ALLSEL
TIME,4.274544112 $ KBC,1 $ AUTOTS,ON $ DELTIM,0.04375031712499999,0.0043750317125,0.17500126849999997 $ SOLVE
ESEL,S,MAT,,1 $ ESEL,R,CENT,Z,(0.0+0.0007)/2 $ BFE,ALL,HGEN,1,280.0/4.375000000000001e-07 $ ALLSEL
TIME,4.274792194 $ KBC,1 $ AUTOTS,ON $ DELTIM,3.101024999996316e-05,3.101024999996316e-06,0.00012404099999985263 $ SOLVE
ESEL,S,MAT,,1 $ ESEL,R,CENT,Z,(0.0+0.0007)/2 $ BFE,ALL,HGEN,1,700.0/4.375000000000001e-07 $ ALLSEL
TIME,4.279487052 $ KBC,1 $ AUTOTS,ON $ DELTIM,0.0005868572500000724,5.868572500000724e-05,0.0023474290000002895 $ SOLVE
ESEL,S,MAT,,1 $ ESEL,R,CENT,Z,(0.0+0.0007)/2 $ BFE,ALL,HGEN,1,700.0/4.375000000000001e-07 $ ALLSEL
TIME,4.281834296 $ KBC,1 $ AUTOTS,ON $ DELTIM,0.0002934055000000102,2.934055000000102e-05,0.0011736220000000408 $ SOLVE
ESEL,S,MAT,,1 $ ESEL,R,CENT,Z,(0.0+0.0007)/2 $ BFE,ALL,HGEN,1,280.0/4.375000000000001e-07 $ ALLSEL
TIME,4.281989278 $ KBC,1 $ AUTOTS,ON $ DELTIM,1.937274999996852e-05,1.937274999996852e-06,7.749099999987408e-05 $ SOLVE
ESEL,S,MAT,,1 $ ESEL,R,CENT,Z,(0.0+0.0007)/2 $ BFE,ALL,HGEN,1,84.0/4.375000000000001e-07 $ ALLSEL
TIME,4.631991815 $ KBC,1 $ AUTOTS,ON $ DELTIM,0.04375031712499999,0.0043750317125,0.17500126849999997 $ SOLVE
ESEL,S,MAT,,1 $ ESEL,R,CENT,Z,(0.0+0.0007)/2 $ BFE,ALL,HGEN,1,700.0/4.375000000000001e-07 $ ALLSEL
TIME,4.640592845 $ KBC,1 $ AUTOTS,ON $ DELTIM,0.0010751287499999318,0.00010751287499999318,0.004300514999999727 $ SOLVE
ESEL,S,MAT,,1 $ ESEL,R,CENT,Z,(0.0+0.0007)/2 $ BFE,ALL,HGEN,1,84.0/4.375000000000001e-07 $ ALLSEL
TIME,4.990595382 $ KBC,1 $ AUTOTS,ON $ DELTIM,0.043750317125000104,0.00437503171250001,0.17500126850000042 $ SOLVE
ESEL,S,MAT,,1 $ ESEL,R,CENT,Z,(0.0+0.0007)/2 $ BFE,ALL,HGEN,1,140.0/4.375000000000001e-07 $ ALLSEL
TIME,4.990636803 $ KBC,1 $ AUTOTS,ON $ DELTIM,1.25e-05,1.25e-06,5e-05 $ SOLVE
ESEL,S,MAT,,1 $ ESEL,R,CENT,Z,(0.0+0.0007)/2 $ BFE,ALL,HGEN,1,140.0/4.375000000000001e-07 $ ALLSEL
TIME,4.990717871 $ KBC,1 $ AUTOTS,ON $ DELTIM,1.25e-05,1.25e-06,5e-05 $ SOLVE
ESEL,S,MAT,,1 $ ESEL,R,CENT,Z,(0.0+0.0007)/2 $ BFE,ALL,HGEN,1,84.0/4.375000000000001e-07 $ ALLSEL
TIME,5.340720408 $ KBC,1 $ AUTOTS,ON $ DELTIM,0.04375031712499999,0.0043750317125,0.17500126849999997 $ SOLVE
ESEL,S,MAT,,1 $ ESEL,R,CENT,Z,(0.0+0.0007)/2 $ BFE,ALL,HGEN,1,700.0/4.375000000000001e-07 $ ALLSEL
TIME,5.351037259 $ KBC,1 $ AUTOTS,ON $ DELTIM,0.0012896063749999742,0.0001289606374999974,0.005158425499999897 $ SOLVE
ESEL,S,MAT,,1 $ ESEL,R,CENT,Z,(0.0+0.0007)/2 $ BFE,ALL,HGEN,1,84.0/4.375000000000001e-07 $ ALLSEL
TIME,5.701039796 $ KBC,1 $ AUTOTS,ON $ DELTIM,0.04375031712499999,0.0043750317125,0.17500126849999997 $ SOLVE
ESEL,S,MAT,,1 $ ESEL,R,CENT,Z,(0.0+0.0007)/2 $ BFE,ALL,HGEN,1,280.0/4.375000000000001e-07 $ ALLSEL
TIME,5.701287878 $ KBC,1 $ AUTOTS,ON $ DELTIM,3.101024999996316e-05,3.101024999996316e-06,0.00012404099999985263 $ SOLVE
ESEL,S,MAT,,1 $ ESEL,R,CENT,Z,(0.0+0.0007)/2 $ BFE,ALL,HGEN,1,700.0/4.375000000000001e-07 $ ALLSEL
TIME,5.705982736 $ KBC,1 $ AUTOTS,ON $ DELTIM,0.0005868572500000724,5.868572500000724e-05,0.0023474290000002895 $ SOLVE
ESEL,S,MAT,,1 $ ESEL,R,CENT,Z,(0.0+0.0007)/2 $ BFE,ALL,HGEN,1,700.0/4.375000000000001e-07 $ ALLSEL
TIME,5.70832998 $ KBC,1 $ AUTOTS,ON $ DELTIM,0.0002934055000000102,2.934055000000102e-05,0.0011736220000000408 $ SOLVE
ESEL,S,MAT,,1 $ ESEL,R,CENT,Z,(0.0+0.0007)/2 $ BFE,ALL,HGEN,1,280.0/4.375000000000001e-07 $ ALLSEL
TIME,5.708484962 $ KBC,1 $ AUTOTS,ON $ DELTIM,1.937274999996852e-05,1.937274999996852e-06,7.749099999987408e-05 $ SOLVE
ESEL,S,MAT,,1 $ ESEL,R,CENT,Z,(0.0+0.0007)/2 $ BFE,ALL,HGEN,1,84.0/4.375000000000001e-07 $ ALLSEL
TIME,6.058487499 $ KBC,1 $ AUTOTS,ON $ DELTIM,0.04375031712499999,0.0043750317125,0.17500126849999997 $ SOLVE
ESEL,S,MAT,,1 $ ESEL,R,CENT,Z,(0.0+0.0007)/2 $ BFE,ALL,HGEN,1,700.0/4.375000000000001e-07 $ ALLSEL
TIME,6.067088529 $ KBC,1 $ AUTOTS,ON $ DELTIM,0.0010751287500000428,0.00010751287500000428,0.004300515000000171 $ SOLVE
ESEL,S,MAT,,1 $ ESEL,R,CENT,Z,(0.0+0.0007)/2 $ BFE,ALL,HGEN,1,84.0/4.375000000000001e-07 $ ALLSEL
TIME,6.417091066 $ KBC,1 $ AUTOTS,ON $ DELTIM,0.04375031712499999,0.0043750317125,0.17500126849999997 $ SOLVE
ESEL,S,MAT,,1 $ ESEL,R,CENT,Z,(0.0+0.0007)/2 $ BFE,ALL,HGEN,1,140.0/4.375000000000001e-07 $ ALLSEL
TIME,6.417132487 $ KBC,1 $ AUTOTS,ON $ DELTIM,1.25e-05,1.25e-06,5e-05 $ SOLVE
ESEL,S,MAT,,1 $ ESEL,R,CENT,Z,(0.0+0.0007)/2 $ BFE,ALL,HGEN,1,140.0/4.375000000000001e-07 $ ALLSEL
TIME,6.417213555 $ KBC,1 $ AUTOTS,ON $ DELTIM,1.25e-05,1.25e-06,5e-05 $ SOLVE
ESEL,S,MAT,,1 $ ESEL,R,CENT,Z,(0.0+0.0007)/2 $ BFE,ALL,HGEN,1,84.0/4.375000000000001e-07 $ ALLSEL
TIME,6.767216092 $ KBC,1 $ AUTOTS,ON $ DELTIM,0.04375031712499999,0.0043750317125,0.17500126849999997 $ SOLVE
ESEL,S,MAT,,1 $ ESEL,R,CENT,Z,(0.0+0.0007)/2 $ BFE,ALL,HGEN,1,700.0/4.375000000000001e-07 $ ALLSEL
TIME,6.777532943 $ KBC,1 $ AUTOTS,ON $ DELTIM,0.0012896063749999742,0.0001289606374999974,0.005158425499999897 $ SOLVE
ESEL,S,MAT,,1 $ ESEL,R,CENT,Z,(0.0+0.0007)/2 $ BFE,ALL,HGEN,1,84.0/4.375000000000001e-07 $ ALLSEL
TIME,7.12753548 $ KBC,1 $ AUTOTS,ON $ DELTIM,0.04375031712499999,0.0043750317125,0.17500126849999997 $ SOLVE
ESEL,S,MAT,,1 $ ESEL,R,CENT,Z,(0.0+0.0007)/2 $ BFE,ALL,HGEN,1,280.0/4.375000000000001e-07 $ ALLSEL
TIME,7.127783562 $ KBC,1 $ AUTOTS,ON $ DELTIM,3.101025000007418e-05,3.101025000007418e-06,0.00012404100000029672 $ SOLVE
ESEL,S,MAT,,1 $ ESEL,R,CENT,Z,(0.0+0.0007)/2 $ BFE,ALL,HGEN,1,700.0/4.375000000000001e-07 $ ALLSEL
TIME,7.13247842 $ KBC,1 $ AUTOTS,ON $ DELTIM,0.0005868572499999614,5.868572499999614e-05,0.0023474289999998454 $ SOLVE
ESEL,S,MAT,,1 $ ESEL,R,CENT,Z,(0.0+0.0007)/2 $ BFE,ALL,HGEN,1,700.0/4.375000000000001e-07 $ ALLSEL
TIME,7.134825664 $ KBC,1 $ AUTOTS,ON $ DELTIM,0.0002934055000000102,2.934055000000102e-05,0.0011736220000000408 $ SOLVE
ESEL,S,MAT,,1 $ ESEL,R,CENT,Z,(0.0+0.0007)/2 $ BFE,ALL,HGEN,1,280.0/4.375000000000001e-07 $ ALLSEL
TIME,7.134980646 $ KBC,1 $ AUTOTS,ON $ DELTIM,1.937274999996852e-05,1.937274999996852e-06,7.749099999987408e-05 $ SOLVE
ESEL,S,MAT,,1 $ ESEL,R,CENT,Z,(0.0+0.0007)/2 $ BFE,ALL,HGEN,1,84.0/4.375000000000001e-07 $ ALLSEL
TIME,7.484983183 $ KBC,1 $ AUTOTS,ON $ DELTIM,0.04375031712499999,0.0043750317125,0.17500126849999997 $ SOLVE
ESEL,S,MAT,,1 $ ESEL,R,CENT,Z,(0.0+0.0007)/2 $ BFE,ALL,HGEN,1,700.0/4.375000000000001e-07 $ ALLSEL
TIME,7.493584213 $ KBC,1 $ AUTOTS,ON $ DELTIM,0.0010751287500000428,0.00010751287500000428,0.004300515000000171 $ SOLVE
ESEL,S,MAT,,1 $ ESEL,R,CENT,Z,(0.0+0.0007)/2 $ BFE,ALL,HGEN,1,84.0/4.375000000000001e-07 $ ALLSEL
TIME,7.84358675 $ KBC,1 $ AUTOTS,ON $ DELTIM,0.04375031712499999,0.0043750317125,0.17500126849999997 $ SOLVE
ESEL,S,MAT,,1 $ ESEL,R,CENT,Z,(0.0+0.0007)/2 $ BFE,ALL,HGEN,1,140.0/4.375000000000001e-07 $ ALLSEL
TIME,7.843628171 $ KBC,1 $ AUTOTS,ON $ DELTIM,1.25e-05,1.25e-06,5e-05 $ SOLVE
ESEL,S,MAT,,1 $ ESEL,R,CENT,Z,(0.0+0.0007)/2 $ BFE,ALL,HGEN,1,140.0/4.375000000000001e-07 $ ALLSEL
TIME,7.843709239 $ KBC,1 $ AUTOTS,ON $ DELTIM,1.25e-05,1.25e-06,5e-05 $ SOLVE
ESEL,S,MAT,,1 $ ESEL,R,CENT,Z,(0.0+0.0007)/2 $ BFE,ALL,HGEN,1,84.0/4.375000000000001e-07 $ ALLSEL
TIME,8.193711776 $ KBC,1 $ AUTOTS,ON $ DELTIM,0.043750317125000104,0.00437503171250001,0.17500126850000042 $ SOLVE
ESEL,S,MAT,,1 $ ESEL,R,CENT,Z,(0.0+0.0007)/2 $ BFE,ALL,HGEN,1,700.0/4.375000000000001e-07 $ ALLSEL
TIME,8.204028627 $ KBC,1 $ AUTOTS,ON $ DELTIM,0.0012896063749998632,0.00012896063749998632,0.005158425499999453 $ SOLVE
ESEL,S,MAT,,1 $ ESEL,R,CENT,Z,(0.0+0.0007)/2 $ BFE,ALL,HGEN,1,84.0/4.375000000000001e-07 $ ALLSEL
TIME,8.554031164 $ KBC,1 $ AUTOTS,ON $ DELTIM,0.04375031712499999,0.0043750317125,0.17500126849999997 $ SOLVE
ESEL,S,MAT,,1 $ ESEL,R,CENT,Z,(0.0+0.0007)/2 $ BFE,ALL,HGEN,1,280.0/4.375000000000001e-07 $ ALLSEL
TIME,8.554279246 $ KBC,1 $ AUTOTS,ON $ DELTIM,3.101025000007418e-05,3.101025000007418e-06,0.00012404100000029672 $ SOLVE
ESEL,S,MAT,,1 $ ESEL,R,CENT,Z,(0.0+0.0007)/2 $ BFE,ALL,HGEN,1,700.0/4.375000000000001e-07 $ ALLSEL
TIME,8.558974104 $ KBC,1 $ AUTOTS,ON $ DELTIM,0.0005868572500000724,5.868572500000724e-05,0.0023474290000002895 $ SOLVE
ESEL,S,MAT,,1 $ ESEL,R,CENT,Z,(0.0+0.0007)/2 $ BFE,ALL,HGEN,1,700.0/4.375000000000001e-07 $ ALLSEL
TIME,8.561321348 $ KBC,1 $ AUTOTS,ON $ DELTIM,0.0002934054999998992,2.934054999998992e-05,0.0011736219999995967 $ SOLVE
ESEL,S,MAT,,1 $ ESEL,R,CENT,Z,(0.0+0.0007)/2 $ BFE,ALL,HGEN,1,280.0/4.375000000000001e-07 $ ALLSEL
TIME,8.56147633 $ KBC,1 $ AUTOTS,ON $ DELTIM,1.937274999996852e-05,1.937274999996852e-06,7.749099999987408e-05 $ SOLVE
ESEL,S,MAT,,1 $ ESEL,R,CENT,Z,(0.0+0.0007)/2 $ BFE,ALL,HGEN,1,84.0/4.375000000000001e-07 $ ALLSEL
TIME,8.911478867 $ KBC,1 $ AUTOTS,ON $ DELTIM,0.04375031712499999,0.0043750317125,0.17500126849999997 $ SOLVE
ESEL,S,MAT,,1 $ ESEL,R,CENT,Z,(0.0+0.0007)/2 $ BFE,ALL,HGEN,1,700.0/4.375000000000001e-07 $ ALLSEL
TIME,8.920079897 $ KBC,1 $ AUTOTS,ON $ DELTIM,0.0010751287500001538,0.00010751287500001538,0.004300515000000615 $ SOLVE
ESEL,S,MAT,,1 $ ESEL,R,CENT,Z,(0.0+0.0007)/2 $ BFE,ALL,HGEN,1,84.0/4.375000000000001e-07 $ ALLSEL
TIME,9.270082434 $ KBC,1 $ AUTOTS,ON $ DELTIM,0.04375031712499999,0.0043750317125,0.17500126849999997 $ SOLVE
ESEL,S,MAT,,1 $ ESEL,R,CENT,Z,(0.0+0.0007)/2 $ BFE,ALL,HGEN,1,140.0/4.375000000000001e-07 $ ALLSEL
TIME,9.270123855 $ KBC,1 $ AUTOTS,ON $ DELTIM,1.25e-05,1.25e-06,5e-05 $ SOLVE
ESEL,S,MAT,,1 $ ESEL,R,CENT,Z,(0.0+0.0007)/2 $ BFE,ALL,HGEN,1,140.0/4.375000000000001e-07 $ ALLSEL
TIME,9.270204923 $ KBC,1 $ AUTOTS,ON $ DELTIM,1.25e-05,1.25e-06,5e-05 $ SOLVE
ESEL,S,MAT,,1 $ ESEL,R,CENT,Z,(0.0+0.0007)/2 $ BFE,ALL,HGEN,1,84.0/4.375000000000001e-07 $ ALLSEL
TIME,9.62020746 $ KBC,1 $ AUTOTS,ON $ DELTIM,0.04375031712499999,0.0043750317125,0.17500126849999997 $ SOLVE
ESEL,S,MAT,,1 $ ESEL,R,CENT,Z,(0.0+0.0007)/2 $ BFE,ALL,HGEN,1,700.0/4.375000000000001e-07 $ ALLSEL
TIME,9.630524311 $ KBC,1 $ AUTOTS,ON $ DELTIM,0.0012896063750000852,0.00012896063750000852,0.005158425500000341 $ SOLVE
ESEL,S,MAT,,1 $ ESEL,R,CENT,Z,(0.0+0.0007)/2 $ BFE,ALL,HGEN,1,84.0/4.375000000000001e-07 $ ALLSEL
TIME,9.980526848 $ KBC,1 $ AUTOTS,ON $ DELTIM,0.04375031712499999,0.0043750317125,0.17500126849999997 $ SOLVE
ESEL,S,MAT,,1 $ ESEL,R,CENT,Z,(0.0+0.0007)/2 $ BFE,ALL,HGEN,1,280.0/4.375000000000001e-07 $ ALLSEL
TIME,9.98077493 $ KBC,1 $ AUTOTS,ON $ DELTIM,3.101025000007418e-05,3.101025000007418e-06,0.00012404100000029672 $ SOLVE
ESEL,S,MAT,,1 $ ESEL,R,CENT,Z,(0.0+0.0007)/2 $ BFE,ALL,HGEN,1,700.0/4.375000000000001e-07 $ ALLSEL
TIME,9.985469789 $ KBC,1 $ AUTOTS,ON $ DELTIM,0.0005868573749998607,5.868573749998607e-05,0.0023474294999994427 $ SOLVE
ESEL,S,MAT,,1 $ ESEL,R,CENT,Z,(0.0+0.0007)/2 $ BFE,ALL,HGEN,1,700.0/4.375000000000001e-07 $ ALLSEL
TIME,9.987817033 $ KBC,1 $ AUTOTS,ON $ DELTIM,0.0002934055000001212,2.934055000001212e-05,0.0011736220000004849 $ SOLVE
ESEL,S,MAT,,1 $ ESEL,R,CENT,Z,(0.0+0.0007)/2 $ BFE,ALL,HGEN,1,280.0/4.375000000000001e-07 $ ALLSEL
TIME,9.987972014 $ KBC,1 $ AUTOTS,ON $ DELTIM,1.9372624999958177e-05,1.9372624999958178e-06,7.749049999983271e-05 $ SOLVE
ESEL,S,MAT,,1 $ ESEL,R,CENT,Z,(0.0+0.0007)/2 $ BFE,ALL,HGEN,1,84.0/4.375000000000001e-07 $ ALLSEL
TIME,10.337974551 $ KBC,1 $ AUTOTS,ON $ DELTIM,0.04375031712499999,0.0043750317125,0.17500126849999997 $ SOLVE
ESEL,S,MAT,,1 $ ESEL,R,CENT,Z,(0.0+0.0007)/2 $ BFE,ALL,HGEN,1,700.0/4.375000000000001e-07 $ ALLSEL
TIME,10.346575581 $ KBC,1 $ AUTOTS,ON $ DELTIM,0.0010751287499999318,0.00010751287499999318,0.004300514999999727 $ SOLVE
ESEL,S,MAT,,1 $ ESEL,R,CENT,Z,(0.0+0.0007)/2 $ BFE,ALL,HGEN,1,84.0/4.375000000000001e-07 $ ALLSEL
TIME,10.696578118 $ KBC,1 $ AUTOTS,ON $ DELTIM,0.04375031712499999,0.0043750317125,0.17500126849999997 $ SOLVE
ESEL,S,MAT,,1 $ ESEL,R,CENT,Z,(0.0+0.0007)/2 $ BFE,ALL,HGEN,1,140.0/4.375000000000001e-07 $ ALLSEL
TIME,10.696619539 $ KBC,1 $ AUTOTS,ON $ DELTIM,1.25e-05,1.25e-06,5e-05 $ SOLVE
ESEL,S,MAT,,1 $ ESEL,R,CENT,Z,(0.0+0.0007)/2 $ BFE,ALL,HGEN,1,140.0/4.375000000000001e-07 $ ALLSEL
TIME,10.696700608 $ KBC,1 $ AUTOTS,ON $ DELTIM,1.25e-05,1.25e-06,5e-05 $ SOLVE
ESEL,S,MAT,,1 $ ESEL,R,CENT,Z,(0.0+0.0007)/2 $ BFE,ALL,HGEN,1,84.0/4.375000000000001e-07 $ ALLSEL
TIME,11.046703145 $ KBC,1 $ AUTOTS,ON $ DELTIM,0.04375031712499999,0.0043750317125,0.17500126849999997 $ SOLVE
ESEL,S,MAT,,1 $ ESEL,R,CENT,Z,(0.0+0.0007)/2 $ BFE,ALL,HGEN,1,700.0/4.375000000000001e-07 $ ALLSEL
TIME,11.057019995 $ KBC,1 $ AUTOTS,ON $ DELTIM,0.0012896062499998528,0.0001289606249999853,0.005158424999999411 $ SOLVE
ESEL,S,MAT,,1 $ ESEL,R,CENT,Z,(0.0+0.0007)/2 $ BFE,ALL,HGEN,1,84.0/4.375000000000001e-07 $ ALLSEL
TIME,11.407022532 $ KBC,1 $ AUTOTS,ON $ DELTIM,0.04375031712499999,0.0043750317125,0.17500126849999997 $ SOLVE
ESEL,S,MAT,,1 $ ESEL,R,CENT,Z,(0.0+0.0007)/2 $ BFE,ALL,HGEN,1,280.0/4.375000000000001e-07 $ ALLSEL
TIME,11.407270614 $ KBC,1 $ AUTOTS,ON $ DELTIM,3.101025000007418e-05,3.101025000007418e-06,0.00012404100000029672 $ SOLVE
ESEL,S,MAT,,1 $ ESEL,R,CENT,Z,(0.0+0.0007)/2 $ BFE,ALL,HGEN,1,700.0/4.375000000000001e-07 $ ALLSEL
TIME,11.411965473 $ KBC,1 $ AUTOTS,ON $ DELTIM,0.0005868573750000827,5.868573750000827e-05,0.002347429500000331 $ SOLVE
ESEL,S,MAT,,1 $ ESEL,R,CENT,Z,(0.0+0.0007)/2 $ BFE,ALL,HGEN,1,700.0/4.375000000000001e-07 $ ALLSEL
TIME,11.414312717 $ KBC,1 $ AUTOTS,ON $ DELTIM,0.0002934054999998992,2.934054999998992e-05,0.0011736219999995967 $ SOLVE
ESEL,S,MAT,,1 $ ESEL,R,CENT,Z,(0.0+0.0007)/2 $ BFE,ALL,HGEN,1,280.0/4.375000000000001e-07 $ ALLSEL
TIME,11.414467698 $ KBC,1 $ AUTOTS,ON $ DELTIM,1.9372624999958177e-05,1.9372624999958178e-06,7.749049999983271e-05 $ SOLVE
ESEL,S,MAT,,1 $ ESEL,R,CENT,Z,(0.0+0.0007)/2 $ BFE,ALL,HGEN,1,84.0/4.375000000000001e-07 $ ALLSEL
TIME,11.764470235 $ KBC,1 $ AUTOTS,ON $ DELTIM,0.04375031712499999,0.0043750317125,0.17500126849999997 $ SOLVE
ESEL,S,MAT,,1 $ ESEL,R,CENT,Z,(0.0+0.0007)/2 $ BFE,ALL,HGEN,1,700.0/4.375000000000001e-07 $ ALLSEL
TIME,11.773071265 $ KBC,1 $ AUTOTS,ON $ DELTIM,0.0010751287500001538,0.00010751287500001538,0.004300515000000615 $ SOLVE
ESEL,S,MAT,,1 $ ESEL,R,CENT,Z,(0.0+0.0007)/2 $ BFE,ALL,HGEN,1,84.0/4.375000000000001e-07 $ ALLSEL
TIME,12.123073802 $ KBC,1 $ AUTOTS,ON $ DELTIM,0.04375031712499999,0.0043750317125,0.17500126849999997 $ SOLVE
ESEL,S,MAT,,1 $ ESEL,R,CENT,Z,(0.0+0.0007)/2 $ BFE,ALL,HGEN,1,140.0/4.375000000000001e-07 $ ALLSEL
TIME,12.123115223 $ KBC,1 $ AUTOTS,ON $ DELTIM,1.25e-05,1.25e-06,5e-05 $ SOLVE
ESEL,S,MAT,,1 $ ESEL,R,CENT,Z,(0.0+0.0007)/2 $ BFE,ALL,HGEN,1,140.0/4.375000000000001e-07 $ ALLSEL
TIME,12.123196292 $ KBC,1 $ AUTOTS,ON $ DELTIM,1.25e-05,1.25e-06,5e-05 $ SOLVE
ESEL,S,MAT,,1 $ ESEL,R,CENT,Z,(0.0+0.0007)/2 $ BFE,ALL,HGEN,1,84.0/4.375000000000001e-07 $ ALLSEL
TIME,12.473198829 $ KBC,1 $ AUTOTS,ON $ DELTIM,0.04375031712499999,0.0043750317125,0.17500126849999997 $ SOLVE
ESEL,S,MAT,,1 $ ESEL,R,CENT,Z,(0.0+0.0007)/2 $ BFE,ALL,HGEN,1,700.0/4.375000000000001e-07 $ ALLSEL
TIME,12.483515679 $ KBC,1 $ AUTOTS,ON $ DELTIM,0.001289606250000075,0.0001289606250000075,0.0051584250000003 $ SOLVE
ESEL,S,MAT,,1 $ ESEL,R,CENT,Z,(0.0+0.0007)/2 $ BFE,ALL,HGEN,1,84.0/4.375000000000001e-07 $ ALLSEL
TIME,12.833518216 $ KBC,1 $ AUTOTS,ON $ DELTIM,0.04375031712499999,0.0043750317125,0.17500126849999997 $ SOLVE
ESEL,S,MAT,,1 $ ESEL,R,CENT,Z,(0.0+0.0007)/2 $ BFE,ALL,HGEN,1,280.0/4.375000000000001e-07 $ ALLSEL
TIME,12.833766299 $ KBC,1 $ AUTOTS,ON $ DELTIM,3.101037500008452e-05,3.1010375000084522e-06,0.0001240415000003381 $ SOLVE
ESEL,S,MAT,,1 $ ESEL,R,CENT,Z,(0.0+0.0007)/2 $ BFE,ALL,HGEN,1,700.0/4.375000000000001e-07 $ ALLSEL
TIME,12.838461157 $ KBC,1 $ AUTOTS,ON $ DELTIM,0.0005868572499998503,5.868572499998503e-05,0.0023474289999994014 $ SOLVE
ESEL,S,MAT,,1 $ ESEL,R,CENT,Z,(0.0+0.0007)/2 $ BFE,ALL,HGEN,1,700.0/4.375000000000001e-07 $ ALLSEL
TIME,12.840808401 $ KBC,1 $ AUTOTS,ON $ DELTIM,0.0002934055000001212,2.934055000001212e-05,0.0011736220000004849 $ SOLVE
ESEL,S,MAT,,1 $ ESEL,R,CENT,Z,(0.0+0.0007)/2 $ BFE,ALL,HGEN,1,280.0/4.375000000000001e-07 $ ALLSEL
TIME,12.840963382 $ KBC,1 $ AUTOTS,ON $ DELTIM,1.9372624999958177e-05,1.9372624999958178e-06,7.749049999983271e-05 $ SOLVE
ESEL,S,MAT,,1 $ ESEL,R,CENT,Z,(0.0+0.0007)/2 $ BFE,ALL,HGEN,1,84.0/4.375000000000001e-07 $ ALLSEL
TIME,13.190965919 $ KBC,1 $ AUTOTS,ON $ DELTIM,0.04375031712499999,0.0043750317125,0.17500126849999997 $ SOLVE
ESEL,S,MAT,,1 $ ESEL,R,CENT,Z,(0.0+0.0007)/2 $ BFE,ALL,HGEN,1,700.0/4.375000000000001e-07 $ ALLSEL
TIME,13.199566949 $ KBC,1 $ AUTOTS,ON $ DELTIM,0.0010751287499999318,0.00010751287499999318,0.004300514999999727 $ SOLVE
ESEL,S,MAT,,1 $ ESEL,R,CENT,Z,(0.0+0.0007)/2 $ BFE,ALL,HGEN,1,84.0/4.375000000000001e-07 $ ALLSEL
TIME,13.549569486 $ KBC,1 $ AUTOTS,ON $ DELTIM,0.04375031712499999,0.0043750317125,0.17500126849999997 $ SOLVE
ESEL,S,MAT,,1 $ ESEL,R,CENT,Z,(0.0+0.0007)/2 $ BFE,ALL,HGEN,1,140.0/4.375000000000001e-07 $ ALLSEL
TIME,13.549610907 $ KBC,1 $ AUTOTS,ON $ DELTIM,1.25e-05,1.25e-06,5e-05 $ SOLVE
ESEL,S,MAT,,1 $ ESEL,R,CENT,Z,(0.0+0.0007)/2 $ BFE,ALL,HGEN,1,140.0/4.375000000000001e-07 $ ALLSEL
TIME,13.549691976 $ KBC,1 $ AUTOTS,ON $ DELTIM,1.25e-05,1.25e-06,5e-05 $ SOLVE
ESEL,S,MAT,,1 $ ESEL,R,CENT,Z,(0.0+0.0007)/2 $ BFE,ALL,HGEN,1,84.0/4.375000000000001e-07 $ ALLSEL
TIME,13.899694513 $ KBC,1 $ AUTOTS,ON $ DELTIM,0.04375031712499999,0.0043750317125,0.17500126849999997 $ SOLVE
ESEL,S,MAT,,1 $ ESEL,R,CENT,Z,(0.0+0.0007)/2 $ BFE,ALL,HGEN,1,700.0/4.375000000000001e-07 $ ALLSEL
TIME,13.910011363 $ KBC,1 $ AUTOTS,ON $ DELTIM,0.001289606250000075,0.0001289606250000075,0.0051584250000003 $ SOLVE
ESEL,S,MAT,,1 $ ESEL,R,CENT,Z,(0.0+0.0007)/2 $ BFE,ALL,HGEN,1,84.0/4.375000000000001e-07 $ ALLSEL
TIME,14.2600139 $ KBC,1 $ AUTOTS,ON $ DELTIM,0.04375031712499999,0.0043750317125,0.17500126849999997 $ SOLVE
ESEL,S,MAT,,1 $ ESEL,R,CENT,Z,(0.0+0.0007)/2 $ BFE,ALL,HGEN,1,280.0/4.375000000000001e-07 $ ALLSEL
TIME,14.260261983 $ KBC,1 $ AUTOTS,ON $ DELTIM,3.101037499986248e-05,3.1010374999862477e-06,0.0001240414999994499 $ SOLVE
ESEL,S,MAT,,1 $ ESEL,R,CENT,Z,(0.0+0.0007)/2 $ BFE,ALL,HGEN,1,700.0/4.375000000000001e-07 $ ALLSEL
TIME,14.264956841 $ KBC,1 $ AUTOTS,ON $ DELTIM,0.0005868572500000724,5.868572500000724e-05,0.0023474290000002895 $ SOLVE
FINISH

/POST26
NUMVAR,200
NSOL,2,NMON,TEMP
/OUTPUT,mixtral8x7b_pic_transient_fwdbwd,csv
PRVAR,2
/OUTPUT
FINISH
