/PREP7
! ===== ICCAD2026 OIO3D GPU/EIC/aPIC transient (Coenen et al. TCPMT 2026 params) =====
MP,KXX,1,150.0 $ MP,KYY,1,150.0 $ MP,KZZ,1,150.0 $ MP,DENS,1,2330 $ MP,C,1,700
MP,KXX,2,5.0 $ MP,KYY,2,5.0 $ MP,KZZ,2,5.0 $ MP,DENS,2,2500 $ MP,C,2,800
MP,KXX,3,80.0 $ MP,KYY,3,80.0 $ MP,KZZ,3,80.0 $ MP,DENS,3,2300 $ MP,C,3,700
MP,KXX,4,2.55 $ MP,KYY,4,2.55 $ MP,KZZ,4,2.55 $ MP,DENS,4,2500 $ MP,C,4,800
ET,1,SOLID70
ESIZE,0.025/20
BLOCK,0,0.025,0,0.025,0.0,0.0007 $ VSEL,S,LOC,Z,(0.0+0.0007)/2 $ VATT,1,,1 $ VMESH,ALL $ ALLSEL
BLOCK,0,0.025,0,0.025,0.0007,0.0007023999999999999 $ VSEL,S,LOC,Z,(0.0007+0.0007023999999999999)/2 $ VATT,2,,1 $ VMESH,ALL $ ALLSEL
BLOCK,0,0.025,0,0.025,0.0007023999999999999,0.0008024 $ VSEL,S,LOC,Z,(0.0007023999999999999+0.0008024)/2 $ VATT,1,,1 $ VMESH,ALL $ ALLSEL
BLOCK,0,0.025,0,0.025,0.0008024,0.0008047999999999999 $ VSEL,S,LOC,Z,(0.0008024+0.0008047999999999999)/2 $ VATT,2,,1 $ VMESH,ALL $ ALLSEL
BLOCK,0,0.025,0,0.025,0.0008047999999999999,0.0008548 $ VSEL,S,LOC,Z,(0.0008047999999999999+0.0008548)/2 $ VATT,3,,1 $ VMESH,ALL $ ALLSEL
BLOCK,0,0.025,0,0.025,0.0008548,0.0008571999999999999 $ VSEL,S,LOC,Z,(0.0008548+0.0008571999999999999)/2 $ VATT,4,,1 $ VMESH,ALL $ ALLSEL
BLOCK,0,0.025,0,0.025,0.0008571999999999999,0.0011572 $ VSEL,S,LOC,Z,(0.0008571999999999999+0.0011572)/2 $ VATT,1,,1 $ VMESH,ALL $ ALLSEL
ALLSEL $ NUMMRG,NODE,1e-9 $ NUMCMP,NODE
VOL_XPU=4.375000000000001e-07
ESEL,S,MAT,,1 $ ESEL,R,CENT,Z,(0.0007023999999999999+0.0008024)/2 $ BFE,ALL,HGEN,1,266.25/6.250000000000001e-08 $ ALLSEL
ESEL,S,MAT,,3 $ BFE,ALL,HGEN,1,70.625/3.1250000000000005e-08 $ ALLSEL
ASEL,S,LOC,Z,0.0 $ SFA,ALL,,CONV,70000.0,45.0 $ ALLSEL
ASEL,S,LOC,Z,0.0011572 $ SFA,ALL,,CONV,16000.0000,45.0 $ ALLSEL
NMON=NODE(0.025/2,0.025/2,(0.0008047999999999999+0.0008548)/2)
FINISH

/SOLU
ANTYPE,TRANS
TRNOPT,FULL
OUTRES,ALL,ALL
TIMINT,OFF
ESEL,S,MAT,,1 $ ESEL,R,CENT,Z,(0.0+0.0007)/2 $ BFE,ALL,HGEN,1,84.0/4.375000000000001e-07 $ ALLSEL
TIME,1e-3 $ KBC,1 $ SOLVE
TIMINT,ON
ESEL,S,MAT,,1 $ ESEL,R,CENT,Z,(0.0+0.0007)/2 $ BFE,ALL,HGEN,1,84.0/4.375000000000001e-07 $ ALLSEL
TIME,0.066643212 $ KBC,1 $ AUTOTS,OFF $ DELTIM,0.001 $ SOLVE
ESEL,S,MAT,,1 $ ESEL,R,CENT,Z,(0.0+0.0007)/2 $ BFE,ALL,HGEN,1,700.0/4.375000000000001e-07 $ ALLSEL
TIME,0.078951178 $ KBC,1 $ AUTOTS,OFF $ DELTIM,0.001 $ SOLVE
ESEL,S,MAT,,1 $ ESEL,R,CENT,Z,(0.0+0.0007)/2 $ BFE,ALL,HGEN,1,140.0/4.375000000000001e-07 $ ALLSEL
TIME,0.079027655 $ KBC,1 $ AUTOTS,OFF $ DELTIM,1.25e-05 $ SOLVE
ESEL,S,MAT,,1 $ ESEL,R,CENT,Z,(0.0+0.0007)/2 $ BFE,ALL,HGEN,1,280.0/4.375000000000001e-07 $ ALLSEL
TIME,0.079081255 $ KBC,1 $ AUTOTS,OFF $ DELTIM,1.25e-05 $ SOLVE
ESEL,S,MAT,,1 $ ESEL,R,CENT,Z,(0.0+0.0007)/2 $ BFE,ALL,HGEN,1,280.0/4.375000000000001e-07 $ ALLSEL
TIME,0.081176324 $ KBC,1 $ AUTOTS,OFF $ DELTIM,0.0002618836249999989 $ SOLVE
ESEL,S,MAT,,1 $ ESEL,R,CENT,Z,(0.0+0.0007)/2 $ BFE,ALL,HGEN,1,700.0/4.375000000000001e-07 $ ALLSEL
TIME,0.087934094 $ KBC,1 $ AUTOTS,OFF $ DELTIM,0.0008447212500000013 $ SOLVE
ESEL,S,MAT,,1 $ ESEL,R,CENT,Z,(0.0+0.0007)/2 $ BFE,ALL,HGEN,1,84.0/4.375000000000001e-07 $ ALLSEL
TIME,0.088777795 $ KBC,1 $ AUTOTS,OFF $ DELTIM,0.00010546262500000028 $ SOLVE
ESEL,S,MAT,,1 $ ESEL,R,CENT,Z,(0.0+0.0007)/2 $ BFE,ALL,HGEN,1,140.0/4.375000000000001e-07 $ ALLSEL
TIME,0.088854273 $ KBC,1 $ AUTOTS,OFF $ DELTIM,1.25e-05 $ SOLVE
ESEL,S,MAT,,1 $ ESEL,R,CENT,Z,(0.0+0.0007)/2 $ BFE,ALL,HGEN,1,700.0/4.375000000000001e-07 $ ALLSEL
TIME,0.097318654 $ KBC,1 $ AUTOTS,OFF $ DELTIM,0.001 $ SOLVE
ESEL,S,MAT,,1 $ ESEL,R,CENT,Z,(0.0+0.0007)/2 $ BFE,ALL,HGEN,1,700.0/4.375000000000001e-07 $ ALLSEL
TIME,0.10962662 $ KBC,1 $ AUTOTS,OFF $ DELTIM,0.001 $ SOLVE
ESEL,S,MAT,,1 $ ESEL,R,CENT,Z,(0.0+0.0007)/2 $ BFE,ALL,HGEN,1,140.0/4.375000000000001e-07 $ ALLSEL
TIME,0.109854423 $ KBC,1 $ AUTOTS,OFF $ DELTIM,2.8475375000001565e-05 $ SOLVE
ESEL,S,MAT,,1 $ ESEL,R,CENT,Z,(0.0+0.0007)/2 $ BFE,ALL,HGEN,1,280.0/4.375000000000001e-07 $ ALLSEL
TIME,0.109921636 $ KBC,1 $ AUTOTS,OFF $ DELTIM,1.25e-05 $ SOLVE
ESEL,S,MAT,,1 $ ESEL,R,CENT,Z,(0.0+0.0007)/2 $ BFE,ALL,HGEN,1,84.0/4.375000000000001e-07 $ ALLSEL
TIME,0.109923318 $ KBC,1 $ AUTOTS,OFF $ DELTIM,1.25e-05 $ SOLVE
ESEL,S,MAT,,1 $ ESEL,R,CENT,Z,(0.0+0.0007)/2 $ BFE,ALL,HGEN,1,280.0/4.375000000000001e-07 $ ALLSEL
TIME,0.112099471 $ KBC,1 $ AUTOTS,OFF $ DELTIM,0.000272019125 $ SOLVE
ESEL,S,MAT,,1 $ ESEL,R,CENT,Z,(0.0+0.0007)/2 $ BFE,ALL,HGEN,1,700.0/4.375000000000001e-07 $ ALLSEL
TIME,0.123448771 $ KBC,1 $ AUTOTS,OFF $ DELTIM,0.001 $ SOLVE
ESEL,S,MAT,,1 $ ESEL,R,CENT,Z,(0.0+0.0007)/2 $ BFE,ALL,HGEN,1,140.0/4.375000000000001e-07 $ ALLSEL
TIME,0.123523724 $ KBC,1 $ AUTOTS,OFF $ DELTIM,1.25e-05 $ SOLVE
ESEL,S,MAT,,1 $ ESEL,R,CENT,Z,(0.0+0.0007)/2 $ BFE,ALL,HGEN,1,140.0/4.375000000000001e-07 $ ALLSEL
TIME,0.123525249 $ KBC,1 $ AUTOTS,OFF $ DELTIM,1.25e-05 $ SOLVE
ESEL,S,MAT,,1 $ ESEL,R,CENT,Z,(0.0+0.0007)/2 $ BFE,ALL,HGEN,1,700.0/4.375000000000001e-07 $ ALLSEL
TIME,0.126317707 $ KBC,1 $ AUTOTS,OFF $ DELTIM,0.0003490572499999997 $ SOLVE
ESEL,S,MAT,,1 $ ESEL,R,CENT,Z,(0.0+0.0007)/2 $ BFE,ALL,HGEN,1,280.0/4.375000000000001e-07 $ ALLSEL
TIME,0.12643964 $ KBC,1 $ AUTOTS,OFF $ DELTIM,1.5241624999998843e-05 $ SOLVE
ESEL,S,MAT,,1 $ ESEL,R,CENT,Z,(0.0+0.0007)/2 $ BFE,ALL,HGEN,1,700.0/4.375000000000001e-07 $ ALLSEL
TIME,0.132111563 $ KBC,1 $ AUTOTS,OFF $ DELTIM,0.0007089903749999994 $ SOLVE
ESEL,S,MAT,,1 $ ESEL,R,CENT,Z,(0.0+0.0007)/2 $ BFE,ALL,HGEN,1,140.0/4.375000000000001e-07 $ ALLSEL
TIME,0.132114194 $ KBC,1 $ AUTOTS,OFF $ DELTIM,1.25e-05 $ SOLVE
ESEL,S,MAT,,1 $ ESEL,R,CENT,Z,(0.0+0.0007)/2 $ BFE,ALL,HGEN,1,700.0/4.375000000000001e-07 $ ALLSEL
TIME,0.14442216 $ KBC,1 $ AUTOTS,OFF $ DELTIM,0.001 $ SOLVE
ESEL,S,MAT,,1 $ ESEL,R,CENT,Z,(0.0+0.0007)/2 $ BFE,ALL,HGEN,1,140.0/4.375000000000001e-07 $ ALLSEL
TIME,0.144797133 $ KBC,1 $ AUTOTS,OFF $ DELTIM,4.687162500000008e-05 $ SOLVE
ESEL,S,MAT,,1 $ ESEL,R,CENT,Z,(0.0+0.0007)/2 $ BFE,ALL,HGEN,1,700.0/4.375000000000001e-07 $ ALLSEL
TIME,0.169413065 $ KBC,1 $ AUTOTS,OFF $ DELTIM,0.001 $ SOLVE
ESEL,S,MAT,,1 $ ESEL,R,CENT,Z,(0.0+0.0007)/2 $ BFE,ALL,HGEN,1,140.0/4.375000000000001e-07 $ ALLSEL
TIME,0.169414588 $ KBC,1 $ AUTOTS,OFF $ DELTIM,1.25e-05 $ SOLVE
ESEL,S,MAT,,1 $ ESEL,R,CENT,Z,(0.0+0.0007)/2 $ BFE,ALL,HGEN,1,280.0/4.375000000000001e-07 $ ALLSEL
TIME,0.169481801 $ KBC,1 $ AUTOTS,OFF $ DELTIM,1.25e-05 $ SOLVE
ESEL,S,MAT,,1 $ ESEL,R,CENT,Z,(0.0+0.0007)/2 $ BFE,ALL,HGEN,1,84.0/4.375000000000001e-07 $ ALLSEL
TIME,0.169483503 $ KBC,1 $ AUTOTS,OFF $ DELTIM,1.25e-05 $ SOLVE
ESEL,S,MAT,,1 $ ESEL,R,CENT,Z,(0.0+0.0007)/2 $ BFE,ALL,HGEN,1,280.0/4.375000000000001e-07 $ ALLSEL
TIME,0.171659656 $ KBC,1 $ AUTOTS,OFF $ DELTIM,0.0002720191249999983 $ SOLVE
ESEL,S,MAT,,1 $ ESEL,R,CENT,Z,(0.0+0.0007)/2 $ BFE,ALL,HGEN,1,700.0/4.375000000000001e-07 $ ALLSEL
TIME,0.183008956 $ KBC,1 $ AUTOTS,OFF $ DELTIM,0.001 $ SOLVE
ESEL,S,MAT,,1 $ ESEL,R,CENT,Z,(0.0+0.0007)/2 $ BFE,ALL,HGEN,1,140.0/4.375000000000001e-07 $ ALLSEL
TIME,0.183083909 $ KBC,1 $ AUTOTS,OFF $ DELTIM,1.25e-05 $ SOLVE
ESEL,S,MAT,,1 $ ESEL,R,CENT,Z,(0.0+0.0007)/2 $ BFE,ALL,HGEN,1,140.0/4.375000000000001e-07 $ ALLSEL
TIME,0.183085434 $ KBC,1 $ AUTOTS,OFF $ DELTIM,1.25e-05 $ SOLVE
ESEL,S,MAT,,1 $ ESEL,R,CENT,Z,(0.0+0.0007)/2 $ BFE,ALL,HGEN,1,700.0/4.375000000000001e-07 $ ALLSEL
TIME,0.185877892 $ KBC,1 $ AUTOTS,OFF $ DELTIM,0.0003490572499999997 $ SOLVE
ESEL,S,MAT,,1 $ ESEL,R,CENT,Z,(0.0+0.0007)/2 $ BFE,ALL,HGEN,1,280.0/4.375000000000001e-07 $ ALLSEL
TIME,0.185999824 $ KBC,1 $ AUTOTS,OFF $ DELTIM,1.5241500000002378e-05 $ SOLVE
ESEL,S,MAT,,1 $ ESEL,R,CENT,Z,(0.0+0.0007)/2 $ BFE,ALL,HGEN,1,700.0/4.375000000000001e-07 $ ALLSEL
TIME,0.191671748 $ KBC,1 $ AUTOTS,OFF $ DELTIM,0.0007089904999999994 $ SOLVE
ESEL,S,MAT,,1 $ ESEL,R,CENT,Z,(0.0+0.0007)/2 $ BFE,ALL,HGEN,1,140.0/4.375000000000001e-07 $ ALLSEL
TIME,0.191673063 $ KBC,1 $ AUTOTS,OFF $ DELTIM,1.25e-05 $ SOLVE
ESEL,S,MAT,,1 $ ESEL,R,CENT,Z,(0.0+0.0007)/2 $ BFE,ALL,HGEN,1,700.0/4.375000000000001e-07 $ ALLSEL
TIME,0.203981028 $ KBC,1 $ AUTOTS,OFF $ DELTIM,0.001 $ SOLVE
ESEL,S,MAT,,1 $ ESEL,R,CENT,Z,(0.0+0.0007)/2 $ BFE,ALL,HGEN,1,140.0/4.375000000000001e-07 $ ALLSEL
TIME,0.204357318 $ KBC,1 $ AUTOTS,OFF $ DELTIM,4.703625000000017e-05 $ SOLVE
ESEL,S,MAT,,1 $ ESEL,R,CENT,Z,(0.0+0.0007)/2 $ BFE,ALL,HGEN,1,700.0/4.375000000000001e-07 $ ALLSEL
TIME,0.22897325 $ KBC,1 $ AUTOTS,OFF $ DELTIM,0.001 $ SOLVE
ESEL,S,MAT,,1 $ ESEL,R,CENT,Z,(0.0+0.0007)/2 $ BFE,ALL,HGEN,1,140.0/4.375000000000001e-07 $ ALLSEL
TIME,0.228974773 $ KBC,1 $ AUTOTS,OFF $ DELTIM,1.25e-05 $ SOLVE
ESEL,S,MAT,,1 $ ESEL,R,CENT,Z,(0.0+0.0007)/2 $ BFE,ALL,HGEN,1,280.0/4.375000000000001e-07 $ ALLSEL
TIME,0.229031749 $ KBC,1 $ AUTOTS,OFF $ DELTIM,1.25e-05 $ SOLVE
ESEL,S,MAT,,1 $ ESEL,R,CENT,Z,(0.0+0.0007)/2 $ BFE,ALL,HGEN,1,280.0/4.375000000000001e-07 $ ALLSEL
TIME,0.23121814 $ KBC,1 $ AUTOTS,OFF $ DELTIM,0.00027329887499999775 $ SOLVE
ESEL,S,MAT,,1 $ ESEL,R,CENT,Z,(0.0+0.0007)/2 $ BFE,ALL,HGEN,1,700.0/4.375000000000001e-07 $ ALLSEL
TIME,0.242567439 $ KBC,1 $ AUTOTS,OFF $ DELTIM,0.001 $ SOLVE
ESEL,S,MAT,,1 $ ESEL,R,CENT,Z,(0.0+0.0007)/2 $ BFE,ALL,HGEN,1,140.0/4.375000000000001e-07 $ ALLSEL
TIME,0.242642393 $ KBC,1 $ AUTOTS,OFF $ DELTIM,1.25e-05 $ SOLVE
ESEL,S,MAT,,1 $ ESEL,R,CENT,Z,(0.0+0.0007)/2 $ BFE,ALL,HGEN,1,140.0/4.375000000000001e-07 $ ALLSEL
TIME,0.242643917 $ KBC,1 $ AUTOTS,OFF $ DELTIM,1.25e-05 $ SOLVE
ESEL,S,MAT,,1 $ ESEL,R,CENT,Z,(0.0+0.0007)/2 $ BFE,ALL,HGEN,1,700.0/4.375000000000001e-07 $ ALLSEL
TIME,0.245436375 $ KBC,1 $ AUTOTS,OFF $ DELTIM,0.0003490572500000032 $ SOLVE
ESEL,S,MAT,,1 $ ESEL,R,CENT,Z,(0.0+0.0007)/2 $ BFE,ALL,HGEN,1,280.0/4.375000000000001e-07 $ ALLSEL
TIME,0.245558308 $ KBC,1 $ AUTOTS,OFF $ DELTIM,1.5241624999998843e-05 $ SOLVE
ESEL,S,MAT,,1 $ ESEL,R,CENT,Z,(0.0+0.0007)/2 $ BFE,ALL,HGEN,1,700.0/4.375000000000001e-07 $ ALLSEL
TIME,0.251230231 $ KBC,1 $ AUTOTS,OFF $ DELTIM,0.0007089903750000029 $ SOLVE
ESEL,S,MAT,,1 $ ESEL,R,CENT,Z,(0.0+0.0007)/2 $ BFE,ALL,HGEN,1,140.0/4.375000000000001e-07 $ ALLSEL
TIME,0.251532881 $ KBC,1 $ AUTOTS,OFF $ DELTIM,3.783124999999499e-05 $ SOLVE
ESEL,S,MAT,,1 $ ESEL,R,CENT,Z,(0.0+0.0007)/2 $ BFE,ALL,HGEN,1,700.0/4.375000000000001e-07 $ ALLSEL
TIME,0.276148813 $ KBC,1 $ AUTOTS,OFF $ DELTIM,0.001 $ SOLVE
ESEL,S,MAT,,1 $ ESEL,R,CENT,Z,(0.0+0.0007)/2 $ BFE,ALL,HGEN,1,280.0/4.375000000000001e-07 $ ALLSEL
TIME,0.276152189 $ KBC,1 $ AUTOTS,OFF $ DELTIM,1.25e-05 $ SOLVE
ESEL,S,MAT,,1 $ ESEL,R,CENT,Z,(0.0+0.0007)/2 $ BFE,ALL,HGEN,1,84.0/4.375000000000001e-07 $ ALLSEL
TIME,0.276782462 $ KBC,1 $ AUTOTS,OFF $ DELTIM,7.878412500000181e-05 $ SOLVE
ESEL,S,MAT,,1 $ ESEL,R,CENT,Z,(0.0+0.0007)/2 $ BFE,ALL,HGEN,1,280.0/4.375000000000001e-07 $ ALLSEL
TIME,0.276873784 $ KBC,1 $ AUTOTS,OFF $ DELTIM,1.25e-05 $ SOLVE
ESEL,S,MAT,,1 $ ESEL,R,CENT,Z,(0.0+0.0007)/2 $ BFE,ALL,HGEN,1,700.0/4.375000000000001e-07 $ ALLSEL
TIME,0.281465314 $ KBC,1 $ AUTOTS,OFF $ DELTIM,0.0005739412500000013 $ SOLVE
ESEL,S,MAT,,1 $ ESEL,R,CENT,Z,(0.0+0.0007)/2 $ BFE,ALL,HGEN,1,84.0/4.375000000000001e-07 $ ALLSEL
TIME,0.281467964 $ KBC,1 $ AUTOTS,OFF $ DELTIM,1.25e-05 $ SOLVE
ESEL,S,MAT,,1 $ ESEL,R,CENT,Z,(0.0+0.0007)/2 $ BFE,ALL,HGEN,1,280.0/4.375000000000001e-07 $ ALLSEL
TIME,0.281589897 $ KBC,1 $ AUTOTS,OFF $ DELTIM,1.5241624999995373e-05 $ SOLVE
ESEL,S,MAT,,1 $ ESEL,R,CENT,Z,(0.0+0.0007)/2 $ BFE,ALL,HGEN,1,140.0/4.375000000000001e-07 $ ALLSEL
TIME,0.281741221 $ KBC,1 $ AUTOTS,OFF $ DELTIM,1.891550000000103e-05 $ SOLVE
ESEL,S,MAT,,1 $ ESEL,R,CENT,Z,(0.0+0.0007)/2 $ BFE,ALL,HGEN,1,700.0/4.375000000000001e-07 $ ALLSEL
TIME,0.306357153 $ KBC,1 $ AUTOTS,OFF $ DELTIM,0.001 $ SOLVE
ESEL,S,MAT,,1 $ ESEL,R,CENT,Z,(0.0+0.0007)/2 $ BFE,ALL,HGEN,1,84.0/4.375000000000001e-07 $ ALLSEL
TIME,0.427672609 $ KBC,1 $ AUTOTS,OFF $ DELTIM,0.001 $ SOLVE
ESEL,S,MAT,,1 $ ESEL,R,CENT,Z,(0.0+0.0007)/2 $ BFE,ALL,HGEN,1,84.0/4.375000000000001e-07 $ ALLSEL
TIME,0.494315821 $ KBC,1 $ AUTOTS,OFF $ DELTIM,0.001 $ SOLVE
ESEL,S,MAT,,1 $ ESEL,R,CENT,Z,(0.0+0.0007)/2 $ BFE,ALL,HGEN,1,700.0/4.375000000000001e-07 $ ALLSEL
TIME,0.506623787 $ KBC,1 $ AUTOTS,OFF $ DELTIM,0.001 $ SOLVE
ESEL,S,MAT,,1 $ ESEL,R,CENT,Z,(0.0+0.0007)/2 $ BFE,ALL,HGEN,1,140.0/4.375000000000001e-07 $ ALLSEL
TIME,0.506700264 $ KBC,1 $ AUTOTS,OFF $ DELTIM,1.25e-05 $ SOLVE
ESEL,S,MAT,,1 $ ESEL,R,CENT,Z,(0.0+0.0007)/2 $ BFE,ALL,HGEN,1,280.0/4.375000000000001e-07 $ ALLSEL
TIME,0.506753864 $ KBC,1 $ AUTOTS,OFF $ DELTIM,1.25e-05 $ SOLVE
ESEL,S,MAT,,1 $ ESEL,R,CENT,Z,(0.0+0.0007)/2 $ BFE,ALL,HGEN,1,280.0/4.375000000000001e-07 $ ALLSEL
TIME,0.508848933 $ KBC,1 $ AUTOTS,OFF $ DELTIM,0.0002618836250000006 $ SOLVE
ESEL,S,MAT,,1 $ ESEL,R,CENT,Z,(0.0+0.0007)/2 $ BFE,ALL,HGEN,1,700.0/4.375000000000001e-07 $ ALLSEL
TIME,0.515606703 $ KBC,1 $ AUTOTS,OFF $ DELTIM,0.0008447212499999995 $ SOLVE
ESEL,S,MAT,,1 $ ESEL,R,CENT,Z,(0.0+0.0007)/2 $ BFE,ALL,HGEN,1,84.0/4.375000000000001e-07 $ ALLSEL
TIME,0.516450404 $ KBC,1 $ AUTOTS,OFF $ DELTIM,0.00010546262499999681 $ SOLVE
ESEL,S,MAT,,1 $ ESEL,R,CENT,Z,(0.0+0.0007)/2 $ BFE,ALL,HGEN,1,140.0/4.375000000000001e-07 $ ALLSEL
TIME,0.516526882 $ KBC,1 $ AUTOTS,OFF $ DELTIM,1.25e-05 $ SOLVE
ESEL,S,MAT,,1 $ ESEL,R,CENT,Z,(0.0+0.0007)/2 $ BFE,ALL,HGEN,1,700.0/4.375000000000001e-07 $ ALLSEL
TIME,0.524991263 $ KBC,1 $ AUTOTS,OFF $ DELTIM,0.001 $ SOLVE
ESEL,S,MAT,,1 $ ESEL,R,CENT,Z,(0.0+0.0007)/2 $ BFE,ALL,HGEN,1,700.0/4.375000000000001e-07 $ ALLSEL
TIME,0.537299229 $ KBC,1 $ AUTOTS,OFF $ DELTIM,0.001 $ SOLVE
ESEL,S,MAT,,1 $ ESEL,R,CENT,Z,(0.0+0.0007)/2 $ BFE,ALL,HGEN,1,140.0/4.375000000000001e-07 $ ALLSEL
TIME,0.537527032 $ KBC,1 $ AUTOTS,OFF $ DELTIM,2.8475374999989422e-05 $ SOLVE
ESEL,S,MAT,,1 $ ESEL,R,CENT,Z,(0.0+0.0007)/2 $ BFE,ALL,HGEN,1,280.0/4.375000000000001e-07 $ ALLSEL
TIME,0.537594245 $ KBC,1 $ AUTOTS,OFF $ DELTIM,1.25e-05 $ SOLVE
ESEL,S,MAT,,1 $ ESEL,R,CENT,Z,(0.0+0.0007)/2 $ BFE,ALL,HGEN,1,84.0/4.375000000000001e-07 $ ALLSEL
TIME,0.537595927 $ KBC,1 $ AUTOTS,OFF $ DELTIM,1.25e-05 $ SOLVE
ESEL,S,MAT,,1 $ ESEL,R,CENT,Z,(0.0+0.0007)/2 $ BFE,ALL,HGEN,1,280.0/4.375000000000001e-07 $ ALLSEL
TIME,0.539772081 $ KBC,1 $ AUTOTS,OFF $ DELTIM,0.0002720192499999913 $ SOLVE
ESEL,S,MAT,,1 $ ESEL,R,CENT,Z,(0.0+0.0007)/2 $ BFE,ALL,HGEN,1,700.0/4.375000000000001e-07 $ ALLSEL
TIME,0.55112138 $ KBC,1 $ AUTOTS,OFF $ DELTIM,0.001 $ SOLVE
ESEL,S,MAT,,1 $ ESEL,R,CENT,Z,(0.0+0.0007)/2 $ BFE,ALL,HGEN,1,140.0/4.375000000000001e-07 $ ALLSEL
TIME,0.551196334 $ KBC,1 $ AUTOTS,OFF $ DELTIM,1.25e-05 $ SOLVE
ESEL,S,MAT,,1 $ ESEL,R,CENT,Z,(0.0+0.0007)/2 $ BFE,ALL,HGEN,1,140.0/4.375000000000001e-07 $ ALLSEL
TIME,0.551197858 $ KBC,1 $ AUTOTS,OFF $ DELTIM,1.25e-05 $ SOLVE
ESEL,S,MAT,,1 $ ESEL,R,CENT,Z,(0.0+0.0007)/2 $ BFE,ALL,HGEN,1,700.0/4.375000000000001e-07 $ ALLSEL
TIME,0.553990316 $ KBC,1 $ AUTOTS,OFF $ DELTIM,0.00034905725000000665 $ SOLVE
ESEL,S,MAT,,1 $ ESEL,R,CENT,Z,(0.0+0.0007)/2 $ BFE,ALL,HGEN,1,280.0/4.375000000000001e-07 $ ALLSEL
TIME,0.554112249 $ KBC,1 $ AUTOTS,OFF $ DELTIM,1.5241624999995373e-05 $ SOLVE
ESEL,S,MAT,,1 $ ESEL,R,CENT,Z,(0.0+0.0007)/2 $ BFE,ALL,HGEN,1,700.0/4.375000000000001e-07 $ ALLSEL
TIME,0.559784172 $ KBC,1 $ AUTOTS,OFF $ DELTIM,0.000708990374999996 $ SOLVE
ESEL,S,MAT,,1 $ ESEL,R,CENT,Z,(0.0+0.0007)/2 $ BFE,ALL,HGEN,1,140.0/4.375000000000001e-07 $ ALLSEL
TIME,0.559786803 $ KBC,1 $ AUTOTS,OFF $ DELTIM,1.25e-05 $ SOLVE
ESEL,S,MAT,,1 $ ESEL,R,CENT,Z,(0.0+0.0007)/2 $ BFE,ALL,HGEN,1,700.0/4.375000000000001e-07 $ ALLSEL
TIME,0.572094769 $ KBC,1 $ AUTOTS,OFF $ DELTIM,0.001 $ SOLVE
ESEL,S,MAT,,1 $ ESEL,R,CENT,Z,(0.0+0.0007)/2 $ BFE,ALL,HGEN,1,140.0/4.375000000000001e-07 $ ALLSEL
TIME,0.572469742 $ KBC,1 $ AUTOTS,OFF $ DELTIM,4.687162500000008e-05 $ SOLVE
ESEL,S,MAT,,1 $ ESEL,R,CENT,Z,(0.0+0.0007)/2 $ BFE,ALL,HGEN,1,700.0/4.375000000000001e-07 $ ALLSEL
TIME,0.597085674 $ KBC,1 $ AUTOTS,OFF $ DELTIM,0.001 $ SOLVE
ESEL,S,MAT,,1 $ ESEL,R,CENT,Z,(0.0+0.0007)/2 $ BFE,ALL,HGEN,1,140.0/4.375000000000001e-07 $ ALLSEL
TIME,0.597087197 $ KBC,1 $ AUTOTS,OFF $ DELTIM,1.25e-05 $ SOLVE
ESEL,S,MAT,,1 $ ESEL,R,CENT,Z,(0.0+0.0007)/2 $ BFE,ALL,HGEN,1,280.0/4.375000000000001e-07 $ ALLSEL
TIME,0.59715441 $ KBC,1 $ AUTOTS,OFF $ DELTIM,1.25e-05 $ SOLVE
ESEL,S,MAT,,1 $ ESEL,R,CENT,Z,(0.0+0.0007)/2 $ BFE,ALL,HGEN,1,84.0/4.375000000000001e-07 $ ALLSEL
TIME,0.597156112 $ KBC,1 $ AUTOTS,OFF $ DELTIM,1.25e-05 $ SOLVE
ESEL,S,MAT,,1 $ ESEL,R,CENT,Z,(0.0+0.0007)/2 $ BFE,ALL,HGEN,1,280.0/4.375000000000001e-07 $ ALLSEL
TIME,0.599332265 $ KBC,1 $ AUTOTS,OFF $ DELTIM,0.0002720191250000087 $ SOLVE
ESEL,S,MAT,,1 $ ESEL,R,CENT,Z,(0.0+0.0007)/2 $ BFE,ALL,HGEN,1,700.0/4.375000000000001e-07 $ ALLSEL
TIME,0.610681565 $ KBC,1 $ AUTOTS,OFF $ DELTIM,0.001 $ SOLVE
ESEL,S,MAT,,1 $ ESEL,R,CENT,Z,(0.0+0.0007)/2 $ BFE,ALL,HGEN,1,140.0/4.375000000000001e-07 $ ALLSEL
TIME,0.610756519 $ KBC,1 $ AUTOTS,OFF $ DELTIM,1.25e-05 $ SOLVE
ESEL,S,MAT,,1 $ ESEL,R,CENT,Z,(0.0+0.0007)/2 $ BFE,ALL,HGEN,1,140.0/4.375000000000001e-07 $ ALLSEL
TIME,0.610758043 $ KBC,1 $ AUTOTS,OFF $ DELTIM,1.25e-05 $ SOLVE
ESEL,S,MAT,,1 $ ESEL,R,CENT,Z,(0.0+0.0007)/2 $ BFE,ALL,HGEN,1,700.0/4.375000000000001e-07 $ ALLSEL
TIME,0.613550501 $ KBC,1 $ AUTOTS,OFF $ DELTIM,0.00034905724999999277 $ SOLVE
ESEL,S,MAT,,1 $ ESEL,R,CENT,Z,(0.0+0.0007)/2 $ BFE,ALL,HGEN,1,280.0/4.375000000000001e-07 $ ALLSEL
TIME,0.613672434 $ KBC,1 $ AUTOTS,OFF $ DELTIM,1.5241625000009251e-05 $ SOLVE
ESEL,S,MAT,,1 $ ESEL,R,CENT,Z,(0.0+0.0007)/2 $ BFE,ALL,HGEN,1,700.0/4.375000000000001e-07 $ ALLSEL
TIME,0.619344357 $ KBC,1 $ AUTOTS,OFF $ DELTIM,0.000708990374999996 $ SOLVE
ESEL,S,MAT,,1 $ ESEL,R,CENT,Z,(0.0+0.0007)/2 $ BFE,ALL,HGEN,1,140.0/4.375000000000001e-07 $ ALLSEL
TIME,0.619345672 $ KBC,1 $ AUTOTS,OFF $ DELTIM,1.25e-05 $ SOLVE
ESEL,S,MAT,,1 $ ESEL,R,CENT,Z,(0.0+0.0007)/2 $ BFE,ALL,HGEN,1,700.0/4.375000000000001e-07 $ ALLSEL
TIME,0.631653638 $ KBC,1 $ AUTOTS,OFF $ DELTIM,0.001 $ SOLVE
ESEL,S,MAT,,1 $ ESEL,R,CENT,Z,(0.0+0.0007)/2 $ BFE,ALL,HGEN,1,140.0/4.375000000000001e-07 $ ALLSEL
TIME,0.632029927 $ KBC,1 $ AUTOTS,OFF $ DELTIM,4.703612500001064e-05 $ SOLVE
ESEL,S,MAT,,1 $ ESEL,R,CENT,Z,(0.0+0.0007)/2 $ BFE,ALL,HGEN,1,700.0/4.375000000000001e-07 $ ALLSEL
TIME,0.656645859 $ KBC,1 $ AUTOTS,OFF $ DELTIM,0.001 $ SOLVE
ESEL,S,MAT,,1 $ ESEL,R,CENT,Z,(0.0+0.0007)/2 $ BFE,ALL,HGEN,1,140.0/4.375000000000001e-07 $ ALLSEL
TIME,0.656647382 $ KBC,1 $ AUTOTS,OFF $ DELTIM,1.25e-05 $ SOLVE
ESEL,S,MAT,,1 $ ESEL,R,CENT,Z,(0.0+0.0007)/2 $ BFE,ALL,HGEN,1,280.0/4.375000000000001e-07 $ ALLSEL
TIME,0.656704358 $ KBC,1 $ AUTOTS,OFF $ DELTIM,1.25e-05 $ SOLVE
ESEL,S,MAT,,1 $ ESEL,R,CENT,Z,(0.0+0.0007)/2 $ BFE,ALL,HGEN,1,280.0/4.375000000000001e-07 $ ALLSEL
TIME,0.658890749 $ KBC,1 $ AUTOTS,OFF $ DELTIM,0.0002732988749999943 $ SOLVE
ESEL,S,MAT,,1 $ ESEL,R,CENT,Z,(0.0+0.0007)/2 $ BFE,ALL,HGEN,1,700.0/4.375000000000001e-07 $ ALLSEL
TIME,0.670240048 $ KBC,1 $ AUTOTS,OFF $ DELTIM,0.001 $ SOLVE
ESEL,S,MAT,,1 $ ESEL,R,CENT,Z,(0.0+0.0007)/2 $ BFE,ALL,HGEN,1,140.0/4.375000000000001e-07 $ ALLSEL
TIME,0.670315002 $ KBC,1 $ AUTOTS,OFF $ DELTIM,1.25e-05 $ SOLVE
ESEL,S,MAT,,1 $ ESEL,R,CENT,Z,(0.0+0.0007)/2 $ BFE,ALL,HGEN,1,140.0/4.375000000000001e-07 $ ALLSEL
TIME,0.670316527 $ KBC,1 $ AUTOTS,OFF $ DELTIM,1.25e-05 $ SOLVE
ESEL,S,MAT,,1 $ ESEL,R,CENT,Z,(0.0+0.0007)/2 $ BFE,ALL,HGEN,1,700.0/4.375000000000001e-07 $ ALLSEL
TIME,0.673108984 $ KBC,1 $ AUTOTS,OFF $ DELTIM,0.0003490571249999963 $ SOLVE
ESEL,S,MAT,,1 $ ESEL,R,CENT,Z,(0.0+0.0007)/2 $ BFE,ALL,HGEN,1,280.0/4.375000000000001e-07 $ ALLSEL
TIME,0.673230917 $ KBC,1 $ AUTOTS,OFF $ DELTIM,1.5241625000009251e-05 $ SOLVE
ESEL,S,MAT,,1 $ ESEL,R,CENT,Z,(0.0+0.0007)/2 $ BFE,ALL,HGEN,1,700.0/4.375000000000001e-07 $ ALLSEL
TIME,0.67890284 $ KBC,1 $ AUTOTS,OFF $ DELTIM,0.000708990374999996 $ SOLVE
ESEL,S,MAT,,1 $ ESEL,R,CENT,Z,(0.0+0.0007)/2 $ BFE,ALL,HGEN,1,140.0/4.375000000000001e-07 $ ALLSEL
TIME,0.679205491 $ KBC,1 $ AUTOTS,OFF $ DELTIM,3.783137500000533e-05 $ SOLVE
ESEL,S,MAT,,1 $ ESEL,R,CENT,Z,(0.0+0.0007)/2 $ BFE,ALL,HGEN,1,700.0/4.375000000000001e-07 $ ALLSEL
TIME,0.703821422 $ KBC,1 $ AUTOTS,OFF $ DELTIM,0.001 $ SOLVE
ESEL,S,MAT,,1 $ ESEL,R,CENT,Z,(0.0+0.0007)/2 $ BFE,ALL,HGEN,1,280.0/4.375000000000001e-07 $ ALLSEL
TIME,0.703824798 $ KBC,1 $ AUTOTS,OFF $ DELTIM,1.25e-05 $ SOLVE
ESEL,S,MAT,,1 $ ESEL,R,CENT,Z,(0.0+0.0007)/2 $ BFE,ALL,HGEN,1,84.0/4.375000000000001e-07 $ ALLSEL
TIME,0.704455072 $ KBC,1 $ AUTOTS,OFF $ DELTIM,7.878425000000522e-05 $ SOLVE
ESEL,S,MAT,,1 $ ESEL,R,CENT,Z,(0.0+0.0007)/2 $ BFE,ALL,HGEN,1,280.0/4.375000000000001e-07 $ ALLSEL
TIME,0.704546393 $ KBC,1 $ AUTOTS,OFF $ DELTIM,1.25e-05 $ SOLVE
ESEL,S,MAT,,1 $ ESEL,R,CENT,Z,(0.0+0.0007)/2 $ BFE,ALL,HGEN,1,700.0/4.375000000000001e-07 $ ALLSEL
TIME,0.709137923 $ KBC,1 $ AUTOTS,OFF $ DELTIM,0.0005739412500000013 $ SOLVE
ESEL,S,MAT,,1 $ ESEL,R,CENT,Z,(0.0+0.0007)/2 $ BFE,ALL,HGEN,1,84.0/4.375000000000001e-07 $ ALLSEL
TIME,0.709140573 $ KBC,1 $ AUTOTS,OFF $ DELTIM,1.25e-05 $ SOLVE
ESEL,S,MAT,,1 $ ESEL,R,CENT,Z,(0.0+0.0007)/2 $ BFE,ALL,HGEN,1,280.0/4.375000000000001e-07 $ ALLSEL
TIME,0.709262506 $ KBC,1 $ AUTOTS,OFF $ DELTIM,1.5241624999995373e-05 $ SOLVE
ESEL,S,MAT,,1 $ ESEL,R,CENT,Z,(0.0+0.0007)/2 $ BFE,ALL,HGEN,1,140.0/4.375000000000001e-07 $ ALLSEL
TIME,0.709413831 $ KBC,1 $ AUTOTS,OFF $ DELTIM,1.8915625000004432e-05 $ SOLVE
ESEL,S,MAT,,1 $ ESEL,R,CENT,Z,(0.0+0.0007)/2 $ BFE,ALL,HGEN,1,700.0/4.375000000000001e-07 $ ALLSEL
TIME,0.734029762 $ KBC,1 $ AUTOTS,OFF $ DELTIM,0.001 $ SOLVE
ESEL,S,MAT,,1 $ ESEL,R,CENT,Z,(0.0+0.0007)/2 $ BFE,ALL,HGEN,1,84.0/4.375000000000001e-07 $ ALLSEL
TIME,0.855345218 $ KBC,1 $ AUTOTS,OFF $ DELTIM,0.001 $ SOLVE
ESEL,S,MAT,,1 $ ESEL,R,CENT,Z,(0.0+0.0007)/2 $ BFE,ALL,HGEN,1,84.0/4.375000000000001e-07 $ ALLSEL
TIME,0.92198843 $ KBC,1 $ AUTOTS,OFF $ DELTIM,0.001 $ SOLVE
ESEL,S,MAT,,1 $ ESEL,R,CENT,Z,(0.0+0.0007)/2 $ BFE,ALL,HGEN,1,700.0/4.375000000000001e-07 $ ALLSEL
TIME,0.934296396 $ KBC,1 $ AUTOTS,OFF $ DELTIM,0.001 $ SOLVE
ESEL,S,MAT,,1 $ ESEL,R,CENT,Z,(0.0+0.0007)/2 $ BFE,ALL,HGEN,1,140.0/4.375000000000001e-07 $ ALLSEL
TIME,0.934372873 $ KBC,1 $ AUTOTS,OFF $ DELTIM,1.25e-05 $ SOLVE
ESEL,S,MAT,,1 $ ESEL,R,CENT,Z,(0.0+0.0007)/2 $ BFE,ALL,HGEN,1,280.0/4.375000000000001e-07 $ ALLSEL
TIME,0.934426473 $ KBC,1 $ AUTOTS,OFF $ DELTIM,1.25e-05 $ SOLVE
ESEL,S,MAT,,1 $ ESEL,R,CENT,Z,(0.0+0.0007)/2 $ BFE,ALL,HGEN,1,280.0/4.375000000000001e-07 $ ALLSEL
TIME,0.936521542 $ KBC,1 $ AUTOTS,OFF $ DELTIM,0.0002618836250000006 $ SOLVE
ESEL,S,MAT,,1 $ ESEL,R,CENT,Z,(0.0+0.0007)/2 $ BFE,ALL,HGEN,1,700.0/4.375000000000001e-07 $ ALLSEL
TIME,0.943279312 $ KBC,1 $ AUTOTS,OFF $ DELTIM,0.0008447212499999995 $ SOLVE
ESEL,S,MAT,,1 $ ESEL,R,CENT,Z,(0.0+0.0007)/2 $ BFE,ALL,HGEN,1,84.0/4.375000000000001e-07 $ ALLSEL
TIME,0.944123013 $ KBC,1 $ AUTOTS,OFF $ DELTIM,0.00010546262499999681 $ SOLVE
ESEL,S,MAT,,1 $ ESEL,R,CENT,Z,(0.0+0.0007)/2 $ BFE,ALL,HGEN,1,140.0/4.375000000000001e-07 $ ALLSEL
TIME,0.944199492 $ KBC,1 $ AUTOTS,OFF $ DELTIM,1.25e-05 $ SOLVE
ESEL,S,MAT,,1 $ ESEL,R,CENT,Z,(0.0+0.0007)/2 $ BFE,ALL,HGEN,1,700.0/4.375000000000001e-07 $ ALLSEL
TIME,0.952663872 $ KBC,1 $ AUTOTS,OFF $ DELTIM,0.001 $ SOLVE
ESEL,S,MAT,,1 $ ESEL,R,CENT,Z,(0.0+0.0007)/2 $ BFE,ALL,HGEN,1,700.0/4.375000000000001e-07 $ ALLSEL
TIME,0.964971838 $ KBC,1 $ AUTOTS,OFF $ DELTIM,0.001 $ SOLVE
ESEL,S,MAT,,1 $ ESEL,R,CENT,Z,(0.0+0.0007)/2 $ BFE,ALL,HGEN,1,140.0/4.375000000000001e-07 $ ALLSEL
TIME,0.965199641 $ KBC,1 $ AUTOTS,OFF $ DELTIM,2.84753750000033e-05 $ SOLVE
ESEL,S,MAT,,1 $ ESEL,R,CENT,Z,(0.0+0.0007)/2 $ BFE,ALL,HGEN,1,280.0/4.375000000000001e-07 $ ALLSEL
TIME,0.965266854 $ KBC,1 $ AUTOTS,OFF $ DELTIM,1.25e-05 $ SOLVE
ESEL,S,MAT,,1 $ ESEL,R,CENT,Z,(0.0+0.0007)/2 $ BFE,ALL,HGEN,1,84.0/4.375000000000001e-07 $ ALLSEL
TIME,0.965268536 $ KBC,1 $ AUTOTS,OFF $ DELTIM,1.25e-05 $ SOLVE
ESEL,S,MAT,,1 $ ESEL,R,CENT,Z,(0.0+0.0007)/2 $ BFE,ALL,HGEN,1,280.0/4.375000000000001e-07 $ ALLSEL
TIME,0.96744469 $ KBC,1 $ AUTOTS,OFF $ DELTIM,0.00027201925000000515 $ SOLVE
ESEL,S,MAT,,1 $ ESEL,R,CENT,Z,(0.0+0.0007)/2 $ BFE,ALL,HGEN,1,700.0/4.375000000000001e-07 $ ALLSEL
TIME,0.978793989 $ KBC,1 $ AUTOTS,OFF $ DELTIM,0.001 $ SOLVE
ESEL,S,MAT,,1 $ ESEL,R,CENT,Z,(0.0+0.0007)/2 $ BFE,ALL,HGEN,1,140.0/4.375000000000001e-07 $ ALLSEL
TIME,0.978868943 $ KBC,1 $ AUTOTS,OFF $ DELTIM,1.25e-05 $ SOLVE
ESEL,S,MAT,,1 $ ESEL,R,CENT,Z,(0.0+0.0007)/2 $ BFE,ALL,HGEN,1,140.0/4.375000000000001e-07 $ ALLSEL
TIME,0.978870467 $ KBC,1 $ AUTOTS,OFF $ DELTIM,1.25e-05 $ SOLVE
ESEL,S,MAT,,1 $ ESEL,R,CENT,Z,(0.0+0.0007)/2 $ BFE,ALL,HGEN,1,700.0/4.375000000000001e-07 $ ALLSEL
TIME,0.981662925 $ KBC,1 $ AUTOTS,OFF $ DELTIM,0.00034905724999999277 $ SOLVE
ESEL,S,MAT,,1 $ ESEL,R,CENT,Z,(0.0+0.0007)/2 $ BFE,ALL,HGEN,1,280.0/4.375000000000001e-07 $ ALLSEL
TIME,0.981784858 $ KBC,1 $ AUTOTS,OFF $ DELTIM,1.5241625000009251e-05 $ SOLVE
ESEL,S,MAT,,1 $ ESEL,R,CENT,Z,(0.0+0.0007)/2 $ BFE,ALL,HGEN,1,700.0/4.375000000000001e-07 $ ALLSEL
TIME,0.987456781 $ KBC,1 $ AUTOTS,OFF $ DELTIM,0.000708990374999996 $ SOLVE
ESEL,S,MAT,,1 $ ESEL,R,CENT,Z,(0.0+0.0007)/2 $ BFE,ALL,HGEN,1,140.0/4.375000000000001e-07 $ ALLSEL
TIME,0.987459412 $ KBC,1 $ AUTOTS,OFF $ DELTIM,1.25e-05 $ SOLVE
ESEL,S,MAT,,1 $ ESEL,R,CENT,Z,(0.0+0.0007)/2 $ BFE,ALL,HGEN,1,700.0/4.375000000000001e-07 $ ALLSEL
TIME,0.999767378 $ KBC,1 $ AUTOTS,OFF $ DELTIM,0.001 $ SOLVE
ESEL,S,MAT,,1 $ ESEL,R,CENT,Z,(0.0+0.0007)/2 $ BFE,ALL,HGEN,1,140.0/4.375000000000001e-07 $ ALLSEL
TIME,1.000142351 $ KBC,1 $ AUTOTS,OFF $ DELTIM,4.687162500000008e-05 $ SOLVE
ESEL,S,MAT,,1 $ ESEL,R,CENT,Z,(0.0+0.0007)/2 $ BFE,ALL,HGEN,1,700.0/4.375000000000001e-07 $ ALLSEL
TIME,1.024758283 $ KBC,1 $ AUTOTS,OFF $ DELTIM,0.001 $ SOLVE
ESEL,S,MAT,,1 $ ESEL,R,CENT,Z,(0.0+0.0007)/2 $ BFE,ALL,HGEN,1,140.0/4.375000000000001e-07 $ ALLSEL
TIME,1.024759807 $ KBC,1 $ AUTOTS,OFF $ DELTIM,1.25e-05 $ SOLVE
ESEL,S,MAT,,1 $ ESEL,R,CENT,Z,(0.0+0.0007)/2 $ BFE,ALL,HGEN,1,280.0/4.375000000000001e-07 $ ALLSEL
TIME,1.024827019 $ KBC,1 $ AUTOTS,OFF $ DELTIM,1.25e-05 $ SOLVE
ESEL,S,MAT,,1 $ ESEL,R,CENT,Z,(0.0+0.0007)/2 $ BFE,ALL,HGEN,1,84.0/4.375000000000001e-07 $ ALLSEL
TIME,1.024828721 $ KBC,1 $ AUTOTS,OFF $ DELTIM,1.25e-05 $ SOLVE
ESEL,S,MAT,,1 $ ESEL,R,CENT,Z,(0.0+0.0007)/2 $ BFE,ALL,HGEN,1,280.0/4.375000000000001e-07 $ ALLSEL
TIME,1.027004875 $ KBC,1 $ AUTOTS,OFF $ DELTIM,0.00027201925000000515 $ SOLVE
ESEL,S,MAT,,1 $ ESEL,R,CENT,Z,(0.0+0.0007)/2 $ BFE,ALL,HGEN,1,700.0/4.375000000000001e-07 $ ALLSEL
TIME,1.038354174 $ KBC,1 $ AUTOTS,OFF $ DELTIM,0.001 $ SOLVE
ESEL,S,MAT,,1 $ ESEL,R,CENT,Z,(0.0+0.0007)/2 $ BFE,ALL,HGEN,1,140.0/4.375000000000001e-07 $ ALLSEL
TIME,1.038429128 $ KBC,1 $ AUTOTS,OFF $ DELTIM,1.25e-05 $ SOLVE
ESEL,S,MAT,,1 $ ESEL,R,CENT,Z,(0.0+0.0007)/2 $ BFE,ALL,HGEN,1,140.0/4.375000000000001e-07 $ ALLSEL
TIME,1.038430652 $ KBC,1 $ AUTOTS,OFF $ DELTIM,1.25e-05 $ SOLVE
ESEL,S,MAT,,1 $ ESEL,R,CENT,Z,(0.0+0.0007)/2 $ BFE,ALL,HGEN,1,700.0/4.375000000000001e-07 $ ALLSEL
TIME,1.04122311 $ KBC,1 $ AUTOTS,OFF $ DELTIM,0.00034905725000000665 $ SOLVE
ESEL,S,MAT,,1 $ ESEL,R,CENT,Z,(0.0+0.0007)/2 $ BFE,ALL,HGEN,1,280.0/4.375000000000001e-07 $ ALLSEL
TIME,1.041345043 $ KBC,1 $ AUTOTS,OFF $ DELTIM,1.5241624999995373e-05 $ SOLVE
ESEL,S,MAT,,1 $ ESEL,R,CENT,Z,(0.0+0.0007)/2 $ BFE,ALL,HGEN,1,700.0/4.375000000000001e-07 $ ALLSEL
TIME,1.047016966 $ KBC,1 $ AUTOTS,OFF $ DELTIM,0.000708990374999996 $ SOLVE
ESEL,S,MAT,,1 $ ESEL,R,CENT,Z,(0.0+0.0007)/2 $ BFE,ALL,HGEN,1,140.0/4.375000000000001e-07 $ ALLSEL
TIME,1.047018281 $ KBC,1 $ AUTOTS,OFF $ DELTIM,1.25e-05 $ SOLVE
ESEL,S,MAT,,1 $ ESEL,R,CENT,Z,(0.0+0.0007)/2 $ BFE,ALL,HGEN,1,700.0/4.375000000000001e-07 $ ALLSEL
TIME,1.059326247 $ KBC,1 $ AUTOTS,OFF $ DELTIM,0.001 $ SOLVE
ESEL,S,MAT,,1 $ ESEL,R,CENT,Z,(0.0+0.0007)/2 $ BFE,ALL,HGEN,1,140.0/4.375000000000001e-07 $ ALLSEL
TIME,1.059702536 $ KBC,1 $ AUTOTS,OFF $ DELTIM,4.703612500001064e-05 $ SOLVE
ESEL,S,MAT,,1 $ ESEL,R,CENT,Z,(0.0+0.0007)/2 $ BFE,ALL,HGEN,1,700.0/4.375000000000001e-07 $ ALLSEL
TIME,1.084318468 $ KBC,1 $ AUTOTS,OFF $ DELTIM,0.001 $ SOLVE
ESEL,S,MAT,,1 $ ESEL,R,CENT,Z,(0.0+0.0007)/2 $ BFE,ALL,HGEN,1,140.0/4.375000000000001e-07 $ ALLSEL
TIME,1.084319991 $ KBC,1 $ AUTOTS,OFF $ DELTIM,1.25e-05 $ SOLVE
ESEL,S,MAT,,1 $ ESEL,R,CENT,Z,(0.0+0.0007)/2 $ BFE,ALL,HGEN,1,280.0/4.375000000000001e-07 $ ALLSEL
TIME,1.084376967 $ KBC,1 $ AUTOTS,OFF $ DELTIM,1.25e-05 $ SOLVE
ESEL,S,MAT,,1 $ ESEL,R,CENT,Z,(0.0+0.0007)/2 $ BFE,ALL,HGEN,1,280.0/4.375000000000001e-07 $ ALLSEL
TIME,1.086563358 $ KBC,1 $ AUTOTS,OFF $ DELTIM,0.0002732988749999943 $ SOLVE
ESEL,S,MAT,,1 $ ESEL,R,CENT,Z,(0.0+0.0007)/2 $ BFE,ALL,HGEN,1,700.0/4.375000000000001e-07 $ ALLSEL
TIME,1.097912657 $ KBC,1 $ AUTOTS,OFF $ DELTIM,0.001 $ SOLVE
ESEL,S,MAT,,1 $ ESEL,R,CENT,Z,(0.0+0.0007)/2 $ BFE,ALL,HGEN,1,140.0/4.375000000000001e-07 $ ALLSEL
TIME,1.097987611 $ KBC,1 $ AUTOTS,OFF $ DELTIM,1.25e-05 $ SOLVE
ESEL,S,MAT,,1 $ ESEL,R,CENT,Z,(0.0+0.0007)/2 $ BFE,ALL,HGEN,1,140.0/4.375000000000001e-07 $ ALLSEL
TIME,1.097989136 $ KBC,1 $ AUTOTS,OFF $ DELTIM,1.25e-05 $ SOLVE
ESEL,S,MAT,,1 $ ESEL,R,CENT,Z,(0.0+0.0007)/2 $ BFE,ALL,HGEN,1,700.0/4.375000000000001e-07 $ ALLSEL
TIME,1.100781593 $ KBC,1 $ AUTOTS,OFF $ DELTIM,0.0003490571249999963 $ SOLVE
ESEL,S,MAT,,1 $ ESEL,R,CENT,Z,(0.0+0.0007)/2 $ BFE,ALL,HGEN,1,280.0/4.375000000000001e-07 $ ALLSEL
TIME,1.100903526 $ KBC,1 $ AUTOTS,OFF $ DELTIM,1.5241624999995373e-05 $ SOLVE
ESEL,S,MAT,,1 $ ESEL,R,CENT,Z,(0.0+0.0007)/2 $ BFE,ALL,HGEN,1,700.0/4.375000000000001e-07 $ ALLSEL
TIME,1.106575449 $ KBC,1 $ AUTOTS,OFF $ DELTIM,0.000708990374999996 $ SOLVE
ESEL,S,MAT,,1 $ ESEL,R,CENT,Z,(0.0+0.0007)/2 $ BFE,ALL,HGEN,1,140.0/4.375000000000001e-07 $ ALLSEL
TIME,1.1068781 $ KBC,1 $ AUTOTS,OFF $ DELTIM,3.783137500001921e-05 $ SOLVE
ESEL,S,MAT,,1 $ ESEL,R,CENT,Z,(0.0+0.0007)/2 $ BFE,ALL,HGEN,1,700.0/4.375000000000001e-07 $ ALLSEL
TIME,1.131494032 $ KBC,1 $ AUTOTS,OFF $ DELTIM,0.001 $ SOLVE
ESEL,S,MAT,,1 $ ESEL,R,CENT,Z,(0.0+0.0007)/2 $ BFE,ALL,HGEN,1,280.0/4.375000000000001e-07 $ ALLSEL
TIME,1.131497408 $ KBC,1 $ AUTOTS,OFF $ DELTIM,1.25e-05 $ SOLVE
ESEL,S,MAT,,1 $ ESEL,R,CENT,Z,(0.0+0.0007)/2 $ BFE,ALL,HGEN,1,84.0/4.375000000000001e-07 $ ALLSEL
TIME,1.132127681 $ KBC,1 $ AUTOTS,OFF $ DELTIM,7.878412500000875e-05 $ SOLVE
ESEL,S,MAT,,1 $ ESEL,R,CENT,Z,(0.0+0.0007)/2 $ BFE,ALL,HGEN,1,280.0/4.375000000000001e-07 $ ALLSEL
TIME,1.132219002 $ KBC,1 $ AUTOTS,OFF $ DELTIM,1.25e-05 $ SOLVE
ESEL,S,MAT,,1 $ ESEL,R,CENT,Z,(0.0+0.0007)/2 $ BFE,ALL,HGEN,1,700.0/4.375000000000001e-07 $ ALLSEL
TIME,1.136810532 $ KBC,1 $ AUTOTS,OFF $ DELTIM,0.0005739412499999874 $ SOLVE
ESEL,S,MAT,,1 $ ESEL,R,CENT,Z,(0.0+0.0007)/2 $ BFE,ALL,HGEN,1,84.0/4.375000000000001e-07 $ ALLSEL
TIME,1.136813182 $ KBC,1 $ AUTOTS,OFF $ DELTIM,1.25e-05 $ SOLVE
ESEL,S,MAT,,1 $ ESEL,R,CENT,Z,(0.0+0.0007)/2 $ BFE,ALL,HGEN,1,280.0/4.375000000000001e-07 $ ALLSEL
TIME,1.136935115 $ KBC,1 $ AUTOTS,OFF $ DELTIM,1.5241624999995373e-05 $ SOLVE
ESEL,S,MAT,,1 $ ESEL,R,CENT,Z,(0.0+0.0007)/2 $ BFE,ALL,HGEN,1,140.0/4.375000000000001e-07 $ ALLSEL
TIME,1.13708644 $ KBC,1 $ AUTOTS,OFF $ DELTIM,1.8915625000004432e-05 $ SOLVE
ESEL,S,MAT,,1 $ ESEL,R,CENT,Z,(0.0+0.0007)/2 $ BFE,ALL,HGEN,1,700.0/4.375000000000001e-07 $ ALLSEL
TIME,1.161702372 $ KBC,1 $ AUTOTS,OFF $ DELTIM,0.001 $ SOLVE
ESEL,S,MAT,,1 $ ESEL,R,CENT,Z,(0.0+0.0007)/2 $ BFE,ALL,HGEN,1,84.0/4.375000000000001e-07 $ ALLSEL
TIME,1.283017827 $ KBC,1 $ AUTOTS,OFF $ DELTIM,0.001 $ SOLVE
ESEL,S,MAT,,1 $ ESEL,R,CENT,Z,(0.0+0.0007)/2 $ BFE,ALL,HGEN,1,84.0/4.375000000000001e-07 $ ALLSEL
TIME,1.349661039 $ KBC,1 $ AUTOTS,OFF $ DELTIM,0.001 $ SOLVE
ESEL,S,MAT,,1 $ ESEL,R,CENT,Z,(0.0+0.0007)/2 $ BFE,ALL,HGEN,1,700.0/4.375000000000001e-07 $ ALLSEL
TIME,1.361969005 $ KBC,1 $ AUTOTS,OFF $ DELTIM,0.001 $ SOLVE
ESEL,S,MAT,,1 $ ESEL,R,CENT,Z,(0.0+0.0007)/2 $ BFE,ALL,HGEN,1,140.0/4.375000000000001e-07 $ ALLSEL
TIME,1.362045483 $ KBC,1 $ AUTOTS,OFF $ DELTIM,1.25e-05 $ SOLVE
ESEL,S,MAT,,1 $ ESEL,R,CENT,Z,(0.0+0.0007)/2 $ BFE,ALL,HGEN,1,280.0/4.375000000000001e-07 $ ALLSEL
TIME,1.362099083 $ KBC,1 $ AUTOTS,OFF $ DELTIM,1.25e-05 $ SOLVE
ESEL,S,MAT,,1 $ ESEL,R,CENT,Z,(0.0+0.0007)/2 $ BFE,ALL,HGEN,1,280.0/4.375000000000001e-07 $ ALLSEL
TIME,1.364194151 $ KBC,1 $ AUTOTS,OFF $ DELTIM,0.00026188350000000415 $ SOLVE
ESEL,S,MAT,,1 $ ESEL,R,CENT,Z,(0.0+0.0007)/2 $ BFE,ALL,HGEN,1,700.0/4.375000000000001e-07 $ ALLSEL
TIME,1.370951921 $ KBC,1 $ AUTOTS,OFF $ DELTIM,0.0008447212500000134 $ SOLVE
ESEL,S,MAT,,1 $ ESEL,R,CENT,Z,(0.0+0.0007)/2 $ BFE,ALL,HGEN,1,84.0/4.375000000000001e-07 $ ALLSEL
TIME,1.371795622 $ KBC,1 $ AUTOTS,OFF $ DELTIM,0.00010546262499999681 $ SOLVE
ESEL,S,MAT,,1 $ ESEL,R,CENT,Z,(0.0+0.0007)/2 $ BFE,ALL,HGEN,1,140.0/4.375000000000001e-07 $ ALLSEL
TIME,1.371872101 $ KBC,1 $ AUTOTS,OFF $ DELTIM,1.25e-05 $ SOLVE
ESEL,S,MAT,,1 $ ESEL,R,CENT,Z,(0.0+0.0007)/2 $ BFE,ALL,HGEN,1,700.0/4.375000000000001e-07 $ ALLSEL
TIME,1.380336481 $ KBC,1 $ AUTOTS,OFF $ DELTIM,0.001 $ SOLVE
ESEL,S,MAT,,1 $ ESEL,R,CENT,Z,(0.0+0.0007)/2 $ BFE,ALL,HGEN,1,700.0/4.375000000000001e-07 $ ALLSEL
TIME,1.392644447 $ KBC,1 $ AUTOTS,OFF $ DELTIM,0.001 $ SOLVE
ESEL,S,MAT,,1 $ ESEL,R,CENT,Z,(0.0+0.0007)/2 $ BFE,ALL,HGEN,1,140.0/4.375000000000001e-07 $ ALLSEL
TIME,1.392872251 $ KBC,1 $ AUTOTS,OFF $ DELTIM,2.8475500000013643e-05 $ SOLVE
ESEL,S,MAT,,1 $ ESEL,R,CENT,Z,(0.0+0.0007)/2 $ BFE,ALL,HGEN,1,280.0/4.375000000000001e-07 $ ALLSEL
TIME,1.392939463 $ KBC,1 $ AUTOTS,OFF $ DELTIM,1.25e-05 $ SOLVE
ESEL,S,MAT,,1 $ ESEL,R,CENT,Z,(0.0+0.0007)/2 $ BFE,ALL,HGEN,1,84.0/4.375000000000001e-07 $ ALLSEL
TIME,1.392941145 $ KBC,1 $ AUTOTS,OFF $ DELTIM,1.25e-05 $ SOLVE
ESEL,S,MAT,,1 $ ESEL,R,CENT,Z,(0.0+0.0007)/2 $ BFE,ALL,HGEN,1,280.0/4.375000000000001e-07 $ ALLSEL
TIME,1.395117299 $ KBC,1 $ AUTOTS,OFF $ DELTIM,0.00027201925000000515 $ SOLVE
ESEL,S,MAT,,1 $ ESEL,R,CENT,Z,(0.0+0.0007)/2 $ BFE,ALL,HGEN,1,700.0/4.375000000000001e-07 $ ALLSEL
TIME,1.406466598 $ KBC,1 $ AUTOTS,OFF $ DELTIM,0.001 $ SOLVE
ESEL,S,MAT,,1 $ ESEL,R,CENT,Z,(0.0+0.0007)/2 $ BFE,ALL,HGEN,1,140.0/4.375000000000001e-07 $ ALLSEL
TIME,1.406541552 $ KBC,1 $ AUTOTS,OFF $ DELTIM,1.25e-05 $ SOLVE
ESEL,S,MAT,,1 $ ESEL,R,CENT,Z,(0.0+0.0007)/2 $ BFE,ALL,HGEN,1,140.0/4.375000000000001e-07 $ ALLSEL
TIME,1.406543077 $ KBC,1 $ AUTOTS,OFF $ DELTIM,1.25e-05 $ SOLVE
ESEL,S,MAT,,1 $ ESEL,R,CENT,Z,(0.0+0.0007)/2 $ BFE,ALL,HGEN,1,700.0/4.375000000000001e-07 $ ALLSEL
TIME,1.409335534 $ KBC,1 $ AUTOTS,OFF $ DELTIM,0.0003490571249999963 $ SOLVE
ESEL,S,MAT,,1 $ ESEL,R,CENT,Z,(0.0+0.0007)/2 $ BFE,ALL,HGEN,1,280.0/4.375000000000001e-07 $ ALLSEL
TIME,1.409457467 $ KBC,1 $ AUTOTS,OFF $ DELTIM,1.5241624999995373e-05 $ SOLVE
ESEL,S,MAT,,1 $ ESEL,R,CENT,Z,(0.0+0.0007)/2 $ BFE,ALL,HGEN,1,700.0/4.375000000000001e-07 $ ALLSEL
TIME,1.41512939 $ KBC,1 $ AUTOTS,OFF $ DELTIM,0.000708990374999996 $ SOLVE
ESEL,S,MAT,,1 $ ESEL,R,CENT,Z,(0.0+0.0007)/2 $ BFE,ALL,HGEN,1,140.0/4.375000000000001e-07 $ ALLSEL
TIME,1.415132021 $ KBC,1 $ AUTOTS,OFF $ DELTIM,1.25e-05 $ SOLVE
ESEL,S,MAT,,1 $ ESEL,R,CENT,Z,(0.0+0.0007)/2 $ BFE,ALL,HGEN,1,700.0/4.375000000000001e-07 $ ALLSEL
TIME,1.427439987 $ KBC,1 $ AUTOTS,OFF $ DELTIM,0.001 $ SOLVE
ESEL,S,MAT,,1 $ ESEL,R,CENT,Z,(0.0+0.0007)/2 $ BFE,ALL,HGEN,1,140.0/4.375000000000001e-07 $ ALLSEL
TIME,1.42781496 $ KBC,1 $ AUTOTS,OFF $ DELTIM,4.687162500000008e-05 $ SOLVE
ESEL,S,MAT,,1 $ ESEL,R,CENT,Z,(0.0+0.0007)/2 $ BFE,ALL,HGEN,1,700.0/4.375000000000001e-07 $ ALLSEL
TIME,1.452430892 $ KBC,1 $ AUTOTS,OFF $ DELTIM,0.001 $ SOLVE
ESEL,S,MAT,,1 $ ESEL,R,CENT,Z,(0.0+0.0007)/2 $ BFE,ALL,HGEN,1,140.0/4.375000000000001e-07 $ ALLSEL
TIME,1.452432416 $ KBC,1 $ AUTOTS,OFF $ DELTIM,1.25e-05 $ SOLVE
ESEL,S,MAT,,1 $ ESEL,R,CENT,Z,(0.0+0.0007)/2 $ BFE,ALL,HGEN,1,280.0/4.375000000000001e-07 $ ALLSEL
TIME,1.452499628 $ KBC,1 $ AUTOTS,OFF $ DELTIM,1.25e-05 $ SOLVE
ESEL,S,MAT,,1 $ ESEL,R,CENT,Z,(0.0+0.0007)/2 $ BFE,ALL,HGEN,1,84.0/4.375000000000001e-07 $ ALLSEL
TIME,1.45250133 $ KBC,1 $ AUTOTS,OFF $ DELTIM,1.25e-05 $ SOLVE
ESEL,S,MAT,,1 $ ESEL,R,CENT,Z,(0.0+0.0007)/2 $ BFE,ALL,HGEN,1,280.0/4.375000000000001e-07 $ ALLSEL
TIME,1.454677484 $ KBC,1 $ AUTOTS,OFF $ DELTIM,0.00027201925000000515 $ SOLVE
ESEL,S,MAT,,1 $ ESEL,R,CENT,Z,(0.0+0.0007)/2 $ BFE,ALL,HGEN,1,700.0/4.375000000000001e-07 $ ALLSEL
TIME,1.466026783 $ KBC,1 $ AUTOTS,OFF $ DELTIM,0.001 $ SOLVE
ESEL,S,MAT,,1 $ ESEL,R,CENT,Z,(0.0+0.0007)/2 $ BFE,ALL,HGEN,1,140.0/4.375000000000001e-07 $ ALLSEL
TIME,1.466101737 $ KBC,1 $ AUTOTS,OFF $ DELTIM,1.25e-05 $ SOLVE
ESEL,S,MAT,,1 $ ESEL,R,CENT,Z,(0.0+0.0007)/2 $ BFE,ALL,HGEN,1,140.0/4.375000000000001e-07 $ ALLSEL
TIME,1.466103262 $ KBC,1 $ AUTOTS,OFF $ DELTIM,1.25e-05 $ SOLVE
ESEL,S,MAT,,1 $ ESEL,R,CENT,Z,(0.0+0.0007)/2 $ BFE,ALL,HGEN,1,700.0/4.375000000000001e-07 $ ALLSEL
TIME,1.468895719 $ KBC,1 $ AUTOTS,OFF $ DELTIM,0.0003490571249999963 $ SOLVE
ESEL,S,MAT,,1 $ ESEL,R,CENT,Z,(0.0+0.0007)/2 $ BFE,ALL,HGEN,1,280.0/4.375000000000001e-07 $ ALLSEL
TIME,1.469017652 $ KBC,1 $ AUTOTS,OFF $ DELTIM,1.5241624999995373e-05 $ SOLVE
ESEL,S,MAT,,1 $ ESEL,R,CENT,Z,(0.0+0.0007)/2 $ BFE,ALL,HGEN,1,700.0/4.375000000000001e-07 $ ALLSEL
TIME,1.474689575 $ KBC,1 $ AUTOTS,OFF $ DELTIM,0.000708990374999996 $ SOLVE
ESEL,S,MAT,,1 $ ESEL,R,CENT,Z,(0.0+0.0007)/2 $ BFE,ALL,HGEN,1,140.0/4.375000000000001e-07 $ ALLSEL
TIME,1.47469089 $ KBC,1 $ AUTOTS,OFF $ DELTIM,1.25e-05 $ SOLVE
ESEL,S,MAT,,1 $ ESEL,R,CENT,Z,(0.0+0.0007)/2 $ BFE,ALL,HGEN,1,700.0/4.375000000000001e-07 $ ALLSEL
TIME,1.486998856 $ KBC,1 $ AUTOTS,OFF $ DELTIM,0.001 $ SOLVE
ESEL,S,MAT,,1 $ ESEL,R,CENT,Z,(0.0+0.0007)/2 $ BFE,ALL,HGEN,1,140.0/4.375000000000001e-07 $ ALLSEL
TIME,1.487375145 $ KBC,1 $ AUTOTS,OFF $ DELTIM,4.703612499998289e-05 $ SOLVE
ESEL,S,MAT,,1 $ ESEL,R,CENT,Z,(0.0+0.0007)/2 $ BFE,ALL,HGEN,1,700.0/4.375000000000001e-07 $ ALLSEL
TIME,1.511991077 $ KBC,1 $ AUTOTS,OFF $ DELTIM,0.001 $ SOLVE
ESEL,S,MAT,,1 $ ESEL,R,CENT,Z,(0.0+0.0007)/2 $ BFE,ALL,HGEN,1,140.0/4.375000000000001e-07 $ ALLSEL
TIME,1.511992601 $ KBC,1 $ AUTOTS,OFF $ DELTIM,1.25e-05 $ SOLVE
ESEL,S,MAT,,1 $ ESEL,R,CENT,Z,(0.0+0.0007)/2 $ BFE,ALL,HGEN,1,280.0/4.375000000000001e-07 $ ALLSEL
TIME,1.512049577 $ KBC,1 $ AUTOTS,OFF $ DELTIM,1.25e-05 $ SOLVE
ESEL,S,MAT,,1 $ ESEL,R,CENT,Z,(0.0+0.0007)/2 $ BFE,ALL,HGEN,1,280.0/4.375000000000001e-07 $ ALLSEL
TIME,1.514235967 $ KBC,1 $ AUTOTS,OFF $ DELTIM,0.0002732987500000117 $ SOLVE
ESEL,S,MAT,,1 $ ESEL,R,CENT,Z,(0.0+0.0007)/2 $ BFE,ALL,HGEN,1,700.0/4.375000000000001e-07 $ ALLSEL
TIME,1.525585266 $ KBC,1 $ AUTOTS,OFF $ DELTIM,0.001 $ SOLVE
ESEL,S,MAT,,1 $ ESEL,R,CENT,Z,(0.0+0.0007)/2 $ BFE,ALL,HGEN,1,140.0/4.375000000000001e-07 $ ALLSEL
TIME,1.52566022 $ KBC,1 $ AUTOTS,OFF $ DELTIM,1.25e-05 $ SOLVE
ESEL,S,MAT,,1 $ ESEL,R,CENT,Z,(0.0+0.0007)/2 $ BFE,ALL,HGEN,1,140.0/4.375000000000001e-07 $ ALLSEL
TIME,1.525661745 $ KBC,1 $ AUTOTS,OFF $ DELTIM,1.25e-05 $ SOLVE
ESEL,S,MAT,,1 $ ESEL,R,CENT,Z,(0.0+0.0007)/2 $ BFE,ALL,HGEN,1,700.0/4.375000000000001e-07 $ ALLSEL
TIME,1.528454202 $ KBC,1 $ AUTOTS,OFF $ DELTIM,0.0003490571249999963 $ SOLVE
ESEL,S,MAT,,1 $ ESEL,R,CENT,Z,(0.0+0.0007)/2 $ BFE,ALL,HGEN,1,280.0/4.375000000000001e-07 $ ALLSEL
TIME,1.528576135 $ KBC,1 $ AUTOTS,OFF $ DELTIM,1.5241624999995373e-05 $ SOLVE
ESEL,S,MAT,,1 $ ESEL,R,CENT,Z,(0.0+0.0007)/2 $ BFE,ALL,HGEN,1,700.0/4.375000000000001e-07 $ ALLSEL
TIME,1.534248058 $ KBC,1 $ AUTOTS,OFF $ DELTIM,0.000708990374999996 $ SOLVE
ESEL,S,MAT,,1 $ ESEL,R,CENT,Z,(0.0+0.0007)/2 $ BFE,ALL,HGEN,1,140.0/4.375000000000001e-07 $ ALLSEL
TIME,1.534550709 $ KBC,1 $ AUTOTS,OFF $ DELTIM,3.783137499999145e-05 $ SOLVE
ESEL,S,MAT,,1 $ ESEL,R,CENT,Z,(0.0+0.0007)/2 $ BFE,ALL,HGEN,1,700.0/4.375000000000001e-07 $ ALLSEL
TIME,1.559166641 $ KBC,1 $ AUTOTS,OFF $ DELTIM,0.001 $ SOLVE
ESEL,S,MAT,,1 $ ESEL,R,CENT,Z,(0.0+0.0007)/2 $ BFE,ALL,HGEN,1,280.0/4.375000000000001e-07 $ ALLSEL
TIME,1.559170017 $ KBC,1 $ AUTOTS,OFF $ DELTIM,1.25e-05 $ SOLVE
ESEL,S,MAT,,1 $ ESEL,R,CENT,Z,(0.0+0.0007)/2 $ BFE,ALL,HGEN,1,84.0/4.375000000000001e-07 $ ALLSEL
TIME,1.55980029 $ KBC,1 $ AUTOTS,OFF $ DELTIM,7.878412500000875e-05 $ SOLVE
ESEL,S,MAT,,1 $ ESEL,R,CENT,Z,(0.0+0.0007)/2 $ BFE,ALL,HGEN,1,280.0/4.375000000000001e-07 $ ALLSEL
TIME,1.559891611 $ KBC,1 $ AUTOTS,OFF $ DELTIM,1.25e-05 $ SOLVE
ESEL,S,MAT,,1 $ ESEL,R,CENT,Z,(0.0+0.0007)/2 $ BFE,ALL,HGEN,1,700.0/4.375000000000001e-07 $ ALLSEL
TIME,1.564483141 $ KBC,1 $ AUTOTS,OFF $ DELTIM,0.0005739412499999874 $ SOLVE
ESEL,S,MAT,,1 $ ESEL,R,CENT,Z,(0.0+0.0007)/2 $ BFE,ALL,HGEN,1,84.0/4.375000000000001e-07 $ ALLSEL
TIME,1.564485792 $ KBC,1 $ AUTOTS,OFF $ DELTIM,1.25e-05 $ SOLVE
ESEL,S,MAT,,1 $ ESEL,R,CENT,Z,(0.0+0.0007)/2 $ BFE,ALL,HGEN,1,280.0/4.375000000000001e-07 $ ALLSEL
TIME,1.564607724 $ KBC,1 $ AUTOTS,OFF $ DELTIM,1.5241500000012786e-05 $ SOLVE
ESEL,S,MAT,,1 $ ESEL,R,CENT,Z,(0.0+0.0007)/2 $ BFE,ALL,HGEN,1,140.0/4.375000000000001e-07 $ ALLSEL
TIME,1.564759049 $ KBC,1 $ AUTOTS,OFF $ DELTIM,1.8915625000004432e-05 $ SOLVE
ESEL,S,MAT,,1 $ ESEL,R,CENT,Z,(0.0+0.0007)/2 $ BFE,ALL,HGEN,1,700.0/4.375000000000001e-07 $ ALLSEL
TIME,1.589374981 $ KBC,1 $ AUTOTS,OFF $ DELTIM,0.001 $ SOLVE
ESEL,S,MAT,,1 $ ESEL,R,CENT,Z,(0.0+0.0007)/2 $ BFE,ALL,HGEN,1,84.0/4.375000000000001e-07 $ ALLSEL
TIME,1.710690437 $ KBC,1 $ AUTOTS,OFF $ DELTIM,0.001 $ SOLVE
ESEL,S,MAT,,1 $ ESEL,R,CENT,Z,(0.0+0.0007)/2 $ BFE,ALL,HGEN,1,84.0/4.375000000000001e-07 $ ALLSEL
TIME,1.777333649 $ KBC,1 $ AUTOTS,OFF $ DELTIM,0.001 $ SOLVE
ESEL,S,MAT,,1 $ ESEL,R,CENT,Z,(0.0+0.0007)/2 $ BFE,ALL,HGEN,1,700.0/4.375000000000001e-07 $ ALLSEL
TIME,1.789641615 $ KBC,1 $ AUTOTS,OFF $ DELTIM,0.001 $ SOLVE
ESEL,S,MAT,,1 $ ESEL,R,CENT,Z,(0.0+0.0007)/2 $ BFE,ALL,HGEN,1,140.0/4.375000000000001e-07 $ ALLSEL
TIME,1.789718092 $ KBC,1 $ AUTOTS,OFF $ DELTIM,1.25e-05 $ SOLVE
ESEL,S,MAT,,1 $ ESEL,R,CENT,Z,(0.0+0.0007)/2 $ BFE,ALL,HGEN,1,280.0/4.375000000000001e-07 $ ALLSEL
TIME,1.789771692 $ KBC,1 $ AUTOTS,OFF $ DELTIM,1.25e-05 $ SOLVE
ESEL,S,MAT,,1 $ ESEL,R,CENT,Z,(0.0+0.0007)/2 $ BFE,ALL,HGEN,1,280.0/4.375000000000001e-07 $ ALLSEL
TIME,1.79186676 $ KBC,1 $ AUTOTS,OFF $ DELTIM,0.00026188350000000415 $ SOLVE
ESEL,S,MAT,,1 $ ESEL,R,CENT,Z,(0.0+0.0007)/2 $ BFE,ALL,HGEN,1,700.0/4.375000000000001e-07 $ ALLSEL
TIME,1.79862453 $ KBC,1 $ AUTOTS,OFF $ DELTIM,0.0008447212500000134 $ SOLVE
ESEL,S,MAT,,1 $ ESEL,R,CENT,Z,(0.0+0.0007)/2 $ BFE,ALL,HGEN,1,84.0/4.375000000000001e-07 $ ALLSEL
TIME,1.799468231 $ KBC,1 $ AUTOTS,OFF $ DELTIM,0.00010546262499999681 $ SOLVE
ESEL,S,MAT,,1 $ ESEL,R,CENT,Z,(0.0+0.0007)/2 $ BFE,ALL,HGEN,1,140.0/4.375000000000001e-07 $ ALLSEL
TIME,1.79954471 $ KBC,1 $ AUTOTS,OFF $ DELTIM,1.25e-05 $ SOLVE
ESEL,S,MAT,,1 $ ESEL,R,CENT,Z,(0.0+0.0007)/2 $ BFE,ALL,HGEN,1,700.0/4.375000000000001e-07 $ ALLSEL
TIME,1.80800909 $ KBC,1 $ AUTOTS,OFF $ DELTIM,0.001 $ SOLVE
ESEL,S,MAT,,1 $ ESEL,R,CENT,Z,(0.0+0.0007)/2 $ BFE,ALL,HGEN,1,700.0/4.375000000000001e-07 $ ALLSEL
TIME,1.820317056 $ KBC,1 $ AUTOTS,OFF $ DELTIM,0.001 $ SOLVE
ESEL,S,MAT,,1 $ ESEL,R,CENT,Z,(0.0+0.0007)/2 $ BFE,ALL,HGEN,1,140.0/4.375000000000001e-07 $ ALLSEL
TIME,1.82054486 $ KBC,1 $ AUTOTS,OFF $ DELTIM,2.8475500000013643e-05 $ SOLVE
ESEL,S,MAT,,1 $ ESEL,R,CENT,Z,(0.0+0.0007)/2 $ BFE,ALL,HGEN,1,280.0/4.375000000000001e-07 $ ALLSEL
TIME,1.820612072 $ KBC,1 $ AUTOTS,OFF $ DELTIM,1.25e-05 $ SOLVE
ESEL,S,MAT,,1 $ ESEL,R,CENT,Z,(0.0+0.0007)/2 $ BFE,ALL,HGEN,1,84.0/4.375000000000001e-07 $ ALLSEL
TIME,1.820613754 $ KBC,1 $ AUTOTS,OFF $ DELTIM,1.25e-05 $ SOLVE
ESEL,S,MAT,,1 $ ESEL,R,CENT,Z,(0.0+0.0007)/2 $ BFE,ALL,HGEN,1,280.0/4.375000000000001e-07 $ ALLSEL
TIME,1.822789908 $ KBC,1 $ AUTOTS,OFF $ DELTIM,0.00027201925000000515 $ SOLVE
ESEL,S,MAT,,1 $ ESEL,R,CENT,Z,(0.0+0.0007)/2 $ BFE,ALL,HGEN,1,700.0/4.375000000000001e-07 $ ALLSEL
TIME,1.834139207 $ KBC,1 $ AUTOTS,OFF $ DELTIM,0.001 $ SOLVE
ESEL,S,MAT,,1 $ ESEL,R,CENT,Z,(0.0+0.0007)/2 $ BFE,ALL,HGEN,1,140.0/4.375000000000001e-07 $ ALLSEL
TIME,1.834214161 $ KBC,1 $ AUTOTS,OFF $ DELTIM,1.25e-05 $ SOLVE
ESEL,S,MAT,,1 $ ESEL,R,CENT,Z,(0.0+0.0007)/2 $ BFE,ALL,HGEN,1,140.0/4.375000000000001e-07 $ ALLSEL
TIME,1.834215686 $ KBC,1 $ AUTOTS,OFF $ DELTIM,1.25e-05 $ SOLVE
ESEL,S,MAT,,1 $ ESEL,R,CENT,Z,(0.0+0.0007)/2 $ BFE,ALL,HGEN,1,700.0/4.375000000000001e-07 $ ALLSEL
TIME,1.837008143 $ KBC,1 $ AUTOTS,OFF $ DELTIM,0.0003490571249999963 $ SOLVE
ESEL,S,MAT,,1 $ ESEL,R,CENT,Z,(0.0+0.0007)/2 $ BFE,ALL,HGEN,1,280.0/4.375000000000001e-07 $ ALLSEL
TIME,1.837130076 $ KBC,1 $ AUTOTS,OFF $ DELTIM,1.5241624999995373e-05 $ SOLVE
ESEL,S,MAT,,1 $ ESEL,R,CENT,Z,(0.0+0.0007)/2 $ BFE,ALL,HGEN,1,700.0/4.375000000000001e-07 $ ALLSEL
TIME,1.842801999 $ KBC,1 $ AUTOTS,OFF $ DELTIM,0.000708990374999996 $ SOLVE
ESEL,S,MAT,,1 $ ESEL,R,CENT,Z,(0.0+0.0007)/2 $ BFE,ALL,HGEN,1,140.0/4.375000000000001e-07 $ ALLSEL
TIME,1.842804631 $ KBC,1 $ AUTOTS,OFF $ DELTIM,1.25e-05 $ SOLVE
ESEL,S,MAT,,1 $ ESEL,R,CENT,Z,(0.0+0.0007)/2 $ BFE,ALL,HGEN,1,700.0/4.375000000000001e-07 $ ALLSEL
TIME,1.855112597 $ KBC,1 $ AUTOTS,OFF $ DELTIM,0.001 $ SOLVE
ESEL,S,MAT,,1 $ ESEL,R,CENT,Z,(0.0+0.0007)/2 $ BFE,ALL,HGEN,1,140.0/4.375000000000001e-07 $ ALLSEL
TIME,1.855487569 $ KBC,1 $ AUTOTS,OFF $ DELTIM,4.687149999998974e-05 $ SOLVE
ESEL,S,MAT,,1 $ ESEL,R,CENT,Z,(0.0+0.0007)/2 $ BFE,ALL,HGEN,1,700.0/4.375000000000001e-07 $ ALLSEL
TIME,1.880103501 $ KBC,1 $ AUTOTS,OFF $ DELTIM,0.001 $ SOLVE
ESEL,S,MAT,,1 $ ESEL,R,CENT,Z,(0.0+0.0007)/2 $ BFE,ALL,HGEN,1,140.0/4.375000000000001e-07 $ ALLSEL
TIME,1.880105025 $ KBC,1 $ AUTOTS,OFF $ DELTIM,1.25e-05 $ SOLVE
ESEL,S,MAT,,1 $ ESEL,R,CENT,Z,(0.0+0.0007)/2 $ BFE,ALL,HGEN,1,280.0/4.375000000000001e-07 $ ALLSEL
TIME,1.880172238 $ KBC,1 $ AUTOTS,OFF $ DELTIM,1.25e-05 $ SOLVE
ESEL,S,MAT,,1 $ ESEL,R,CENT,Z,(0.0+0.0007)/2 $ BFE,ALL,HGEN,1,84.0/4.375000000000001e-07 $ ALLSEL
TIME,1.880173939 $ KBC,1 $ AUTOTS,OFF $ DELTIM,1.25e-05 $ SOLVE
ESEL,S,MAT,,1 $ ESEL,R,CENT,Z,(0.0+0.0007)/2 $ BFE,ALL,HGEN,1,280.0/4.375000000000001e-07 $ ALLSEL
TIME,1.882350093 $ KBC,1 $ AUTOTS,OFF $ DELTIM,0.0002720192499999774 $ SOLVE
ESEL,S,MAT,,1 $ ESEL,R,CENT,Z,(0.0+0.0007)/2 $ BFE,ALL,HGEN,1,700.0/4.375000000000001e-07 $ ALLSEL
TIME,1.893699392 $ KBC,1 $ AUTOTS,OFF $ DELTIM,0.001 $ SOLVE
ESEL,S,MAT,,1 $ ESEL,R,CENT,Z,(0.0+0.0007)/2 $ BFE,ALL,HGEN,1,140.0/4.375000000000001e-07 $ ALLSEL
TIME,1.893774346 $ KBC,1 $ AUTOTS,OFF $ DELTIM,1.25e-05 $ SOLVE
ESEL,S,MAT,,1 $ ESEL,R,CENT,Z,(0.0+0.0007)/2 $ BFE,ALL,HGEN,1,140.0/4.375000000000001e-07 $ ALLSEL
TIME,1.893775871 $ KBC,1 $ AUTOTS,OFF $ DELTIM,1.25e-05 $ SOLVE
ESEL,S,MAT,,1 $ ESEL,R,CENT,Z,(0.0+0.0007)/2 $ BFE,ALL,HGEN,1,700.0/4.375000000000001e-07 $ ALLSEL
TIME,1.896568328 $ KBC,1 $ AUTOTS,OFF $ DELTIM,0.0003490571249999963 $ SOLVE
ESEL,S,MAT,,1 $ ESEL,R,CENT,Z,(0.0+0.0007)/2 $ BFE,ALL,HGEN,1,280.0/4.375000000000001e-07 $ ALLSEL
TIME,1.896690261 $ KBC,1 $ AUTOTS,OFF $ DELTIM,1.5241624999995373e-05 $ SOLVE
ESEL,S,MAT,,1 $ ESEL,R,CENT,Z,(0.0+0.0007)/2 $ BFE,ALL,HGEN,1,700.0/4.375000000000001e-07 $ ALLSEL
TIME,1.902362184 $ KBC,1 $ AUTOTS,OFF $ DELTIM,0.000708990374999996 $ SOLVE
ESEL,S,MAT,,1 $ ESEL,R,CENT,Z,(0.0+0.0007)/2 $ BFE,ALL,HGEN,1,140.0/4.375000000000001e-07 $ ALLSEL
TIME,1.902363499 $ KBC,1 $ AUTOTS,OFF $ DELTIM,1.25e-05 $ SOLVE
ESEL,S,MAT,,1 $ ESEL,R,CENT,Z,(0.0+0.0007)/2 $ BFE,ALL,HGEN,1,700.0/4.375000000000001e-07 $ ALLSEL
TIME,1.914671465 $ KBC,1 $ AUTOTS,OFF $ DELTIM,0.001 $ SOLVE
ESEL,S,MAT,,1 $ ESEL,R,CENT,Z,(0.0+0.0007)/2 $ BFE,ALL,HGEN,1,140.0/4.375000000000001e-07 $ ALLSEL
TIME,1.915047754 $ KBC,1 $ AUTOTS,OFF $ DELTIM,4.703612499998289e-05 $ SOLVE
ESEL,S,MAT,,1 $ ESEL,R,CENT,Z,(0.0+0.0007)/2 $ BFE,ALL,HGEN,1,700.0/4.375000000000001e-07 $ ALLSEL
TIME,1.939663686 $ KBC,1 $ AUTOTS,OFF $ DELTIM,0.001 $ SOLVE
ESEL,S,MAT,,1 $ ESEL,R,CENT,Z,(0.0+0.0007)/2 $ BFE,ALL,HGEN,1,140.0/4.375000000000001e-07 $ ALLSEL
TIME,1.93966521 $ KBC,1 $ AUTOTS,OFF $ DELTIM,1.25e-05 $ SOLVE
ESEL,S,MAT,,1 $ ESEL,R,CENT,Z,(0.0+0.0007)/2 $ BFE,ALL,HGEN,1,280.0/4.375000000000001e-07 $ ALLSEL
TIME,1.939722186 $ KBC,1 $ AUTOTS,OFF $ DELTIM,1.25e-05 $ SOLVE
ESEL,S,MAT,,1 $ ESEL,R,CENT,Z,(0.0+0.0007)/2 $ BFE,ALL,HGEN,1,280.0/4.375000000000001e-07 $ ALLSEL
TIME,1.941908576 $ KBC,1 $ AUTOTS,OFF $ DELTIM,0.0002732987500000117 $ SOLVE
ESEL,S,MAT,,1 $ ESEL,R,CENT,Z,(0.0+0.0007)/2 $ BFE,ALL,HGEN,1,700.0/4.375000000000001e-07 $ ALLSEL
TIME,1.953257876 $ KBC,1 $ AUTOTS,OFF $ DELTIM,0.001 $ SOLVE
ESEL,S,MAT,,1 $ ESEL,R,CENT,Z,(0.0+0.0007)/2 $ BFE,ALL,HGEN,1,140.0/4.375000000000001e-07 $ ALLSEL
TIME,1.953332829 $ KBC,1 $ AUTOTS,OFF $ DELTIM,1.25e-05 $ SOLVE
ESEL,S,MAT,,1 $ ESEL,R,CENT,Z,(0.0+0.0007)/2 $ BFE,ALL,HGEN,1,140.0/4.375000000000001e-07 $ ALLSEL
TIME,1.953334354 $ KBC,1 $ AUTOTS,OFF $ DELTIM,1.25e-05 $ SOLVE
ESEL,S,MAT,,1 $ ESEL,R,CENT,Z,(0.0+0.0007)/2 $ BFE,ALL,HGEN,1,700.0/4.375000000000001e-07 $ ALLSEL
TIME,1.956126811 $ KBC,1 $ AUTOTS,OFF $ DELTIM,0.0003490571249999963 $ SOLVE
ESEL,S,MAT,,1 $ ESEL,R,CENT,Z,(0.0+0.0007)/2 $ BFE,ALL,HGEN,1,280.0/4.375000000000001e-07 $ ALLSEL
TIME,1.956248744 $ KBC,1 $ AUTOTS,OFF $ DELTIM,1.5241624999995373e-05 $ SOLVE
ESEL,S,MAT,,1 $ ESEL,R,CENT,Z,(0.0+0.0007)/2 $ BFE,ALL,HGEN,1,700.0/4.375000000000001e-07 $ ALLSEL
TIME,1.961920667 $ KBC,1 $ AUTOTS,OFF $ DELTIM,0.000708990374999996 $ SOLVE
ESEL,S,MAT,,1 $ ESEL,R,CENT,Z,(0.0+0.0007)/2 $ BFE,ALL,HGEN,1,140.0/4.375000000000001e-07 $ ALLSEL
TIME,1.962223318 $ KBC,1 $ AUTOTS,OFF $ DELTIM,3.783137499999145e-05 $ SOLVE
ESEL,S,MAT,,1 $ ESEL,R,CENT,Z,(0.0+0.0007)/2 $ BFE,ALL,HGEN,1,700.0/4.375000000000001e-07 $ ALLSEL
TIME,1.98683925 $ KBC,1 $ AUTOTS,OFF $ DELTIM,0.001 $ SOLVE
ESEL,S,MAT,,1 $ ESEL,R,CENT,Z,(0.0+0.0007)/2 $ BFE,ALL,HGEN,1,280.0/4.375000000000001e-07 $ ALLSEL
TIME,1.986842626 $ KBC,1 $ AUTOTS,OFF $ DELTIM,1.25e-05 $ SOLVE
ESEL,S,MAT,,1 $ ESEL,R,CENT,Z,(0.0+0.0007)/2 $ BFE,ALL,HGEN,1,84.0/4.375000000000001e-07 $ ALLSEL
TIME,1.987472899 $ KBC,1 $ AUTOTS,OFF $ DELTIM,7.8784124999981e-05 $ SOLVE
ESEL,S,MAT,,1 $ ESEL,R,CENT,Z,(0.0+0.0007)/2 $ BFE,ALL,HGEN,1,280.0/4.375000000000001e-07 $ ALLSEL
TIME,1.987564221 $ KBC,1 $ AUTOTS,OFF $ DELTIM,1.25e-05 $ SOLVE
ESEL,S,MAT,,1 $ ESEL,R,CENT,Z,(0.0+0.0007)/2 $ BFE,ALL,HGEN,1,700.0/4.375000000000001e-07 $ ALLSEL
TIME,1.99215575 $ KBC,1 $ AUTOTS,OFF $ DELTIM,0.0005739411250000048 $ SOLVE
ESEL,S,MAT,,1 $ ESEL,R,CENT,Z,(0.0+0.0007)/2 $ BFE,ALL,HGEN,1,84.0/4.375000000000001e-07 $ ALLSEL
TIME,1.992158401 $ KBC,1 $ AUTOTS,OFF $ DELTIM,1.25e-05 $ SOLVE
ESEL,S,MAT,,1 $ ESEL,R,CENT,Z,(0.0+0.0007)/2 $ BFE,ALL,HGEN,1,280.0/4.375000000000001e-07 $ ALLSEL
TIME,1.992280333 $ KBC,1 $ AUTOTS,OFF $ DELTIM,1.5241500000012786e-05 $ SOLVE
ESEL,S,MAT,,1 $ ESEL,R,CENT,Z,(0.0+0.0007)/2 $ BFE,ALL,HGEN,1,140.0/4.375000000000001e-07 $ ALLSEL
TIME,1.992431658 $ KBC,1 $ AUTOTS,OFF $ DELTIM,1.8915625000004432e-05 $ SOLVE
ESEL,S,MAT,,1 $ ESEL,R,CENT,Z,(0.0+0.0007)/2 $ BFE,ALL,HGEN,1,700.0/4.375000000000001e-07 $ ALLSEL
TIME,2.01704759 $ KBC,1 $ AUTOTS,OFF $ DELTIM,0.001 $ SOLVE
ESEL,S,MAT,,1 $ ESEL,R,CENT,Z,(0.0+0.0007)/2 $ BFE,ALL,HGEN,1,84.0/4.375000000000001e-07 $ ALLSEL
TIME,2.138363046 $ KBC,1 $ AUTOTS,OFF $ DELTIM,0.001 $ SOLVE
ESEL,S,MAT,,1 $ ESEL,R,CENT,Z,(0.0+0.0007)/2 $ BFE,ALL,HGEN,1,84.0/4.375000000000001e-07 $ ALLSEL
TIME,2.205006258 $ KBC,1 $ AUTOTS,OFF $ DELTIM,0.001 $ SOLVE
ESEL,S,MAT,,1 $ ESEL,R,CENT,Z,(0.0+0.0007)/2 $ BFE,ALL,HGEN,1,700.0/4.375000000000001e-07 $ ALLSEL
TIME,2.217314224 $ KBC,1 $ AUTOTS,OFF $ DELTIM,0.001 $ SOLVE
ESEL,S,MAT,,1 $ ESEL,R,CENT,Z,(0.0+0.0007)/2 $ BFE,ALL,HGEN,1,140.0/4.375000000000001e-07 $ ALLSEL
TIME,2.217390701 $ KBC,1 $ AUTOTS,OFF $ DELTIM,1.25e-05 $ SOLVE
ESEL,S,MAT,,1 $ ESEL,R,CENT,Z,(0.0+0.0007)/2 $ BFE,ALL,HGEN,1,280.0/4.375000000000001e-07 $ ALLSEL
TIME,2.217444301 $ KBC,1 $ AUTOTS,OFF $ DELTIM,1.25e-05 $ SOLVE
ESEL,S,MAT,,1 $ ESEL,R,CENT,Z,(0.0+0.0007)/2 $ BFE,ALL,HGEN,1,280.0/4.375000000000001e-07 $ ALLSEL
TIME,2.21953937 $ KBC,1 $ AUTOTS,OFF $ DELTIM,0.0002618836250000145 $ SOLVE
ESEL,S,MAT,,1 $ ESEL,R,CENT,Z,(0.0+0.0007)/2 $ BFE,ALL,HGEN,1,700.0/4.375000000000001e-07 $ ALLSEL
TIME,2.226297139 $ KBC,1 $ AUTOTS,OFF $ DELTIM,0.0008447211250000031 $ SOLVE
ESEL,S,MAT,,1 $ ESEL,R,CENT,Z,(0.0+0.0007)/2 $ BFE,ALL,HGEN,1,84.0/4.375000000000001e-07 $ ALLSEL
TIME,2.227140841 $ KBC,1 $ AUTOTS,OFF $ DELTIM,0.00010546275000000715 $ SOLVE
ESEL,S,MAT,,1 $ ESEL,R,CENT,Z,(0.0+0.0007)/2 $ BFE,ALL,HGEN,1,140.0/4.375000000000001e-07 $ ALLSEL
TIME,2.227217319 $ KBC,1 $ AUTOTS,OFF $ DELTIM,1.25e-05 $ SOLVE
ESEL,S,MAT,,1 $ ESEL,R,CENT,Z,(0.0+0.0007)/2 $ BFE,ALL,HGEN,1,700.0/4.375000000000001e-07 $ ALLSEL
TIME,2.2356817 $ KBC,1 $ AUTOTS,OFF $ DELTIM,0.001 $ SOLVE
ESEL,S,MAT,,1 $ ESEL,R,CENT,Z,(0.0+0.0007)/2 $ BFE,ALL,HGEN,1,700.0/4.375000000000001e-07 $ ALLSEL
TIME,2.247989666 $ KBC,1 $ AUTOTS,OFF $ DELTIM,0.001 $ SOLVE
ESEL,S,MAT,,1 $ ESEL,R,CENT,Z,(0.0+0.0007)/2 $ BFE,ALL,HGEN,1,140.0/4.375000000000001e-07 $ ALLSEL
TIME,2.248217469 $ KBC,1 $ AUTOTS,OFF $ DELTIM,2.84753750000033e-05 $ SOLVE
ESEL,S,MAT,,1 $ ESEL,R,CENT,Z,(0.0+0.0007)/2 $ BFE,ALL,HGEN,1,280.0/4.375000000000001e-07 $ ALLSEL
TIME,2.248284682 $ KBC,1 $ AUTOTS,OFF $ DELTIM,1.25e-05 $ SOLVE
ESEL,S,MAT,,1 $ ESEL,R,CENT,Z,(0.0+0.0007)/2 $ BFE,ALL,HGEN,1,84.0/4.375000000000001e-07 $ ALLSEL
TIME,2.248286364 $ KBC,1 $ AUTOTS,OFF $ DELTIM,1.25e-05 $ SOLVE
ESEL,S,MAT,,1 $ ESEL,R,CENT,Z,(0.0+0.0007)/2 $ BFE,ALL,HGEN,1,280.0/4.375000000000001e-07 $ ALLSEL
TIME,2.250462517 $ KBC,1 $ AUTOTS,OFF $ DELTIM,0.00027201912499996705 $ SOLVE
ESEL,S,MAT,,1 $ ESEL,R,CENT,Z,(0.0+0.0007)/2 $ BFE,ALL,HGEN,1,700.0/4.375000000000001e-07 $ ALLSEL
TIME,2.261811816 $ KBC,1 $ AUTOTS,OFF $ DELTIM,0.001 $ SOLVE
ESEL,S,MAT,,1 $ ESEL,R,CENT,Z,(0.0+0.0007)/2 $ BFE,ALL,HGEN,1,140.0/4.375000000000001e-07 $ ALLSEL
TIME,2.26188677 $ KBC,1 $ AUTOTS,OFF $ DELTIM,1.25e-05 $ SOLVE
ESEL,S,MAT,,1 $ ESEL,R,CENT,Z,(0.0+0.0007)/2 $ BFE,ALL,HGEN,1,140.0/4.375000000000001e-07 $ ALLSEL
TIME,2.261888295 $ KBC,1 $ AUTOTS,OFF $ DELTIM,1.25e-05 $ SOLVE
ESEL,S,MAT,,1 $ ESEL,R,CENT,Z,(0.0+0.0007)/2 $ BFE,ALL,HGEN,1,700.0/4.375000000000001e-07 $ ALLSEL
TIME,2.264680752 $ KBC,1 $ AUTOTS,OFF $ DELTIM,0.0003490571249999963 $ SOLVE
ESEL,S,MAT,,1 $ ESEL,R,CENT,Z,(0.0+0.0007)/2 $ BFE,ALL,HGEN,1,280.0/4.375000000000001e-07 $ ALLSEL
TIME,2.264802685 $ KBC,1 $ AUTOTS,OFF $ DELTIM,1.5241624999995373e-05 $ SOLVE
ESEL,S,MAT,,1 $ ESEL,R,CENT,Z,(0.0+0.0007)/2 $ BFE,ALL,HGEN,1,700.0/4.375000000000001e-07 $ ALLSEL
TIME,2.270474608 $ KBC,1 $ AUTOTS,OFF $ DELTIM,0.000708990374999996 $ SOLVE
ESEL,S,MAT,,1 $ ESEL,R,CENT,Z,(0.0+0.0007)/2 $ BFE,ALL,HGEN,1,140.0/4.375000000000001e-07 $ ALLSEL
TIME,2.27047724 $ KBC,1 $ AUTOTS,OFF $ DELTIM,1.25e-05 $ SOLVE
ESEL,S,MAT,,1 $ ESEL,R,CENT,Z,(0.0+0.0007)/2 $ BFE,ALL,HGEN,1,700.0/4.375000000000001e-07 $ ALLSEL
TIME,2.282785206 $ KBC,1 $ AUTOTS,OFF $ DELTIM,0.001 $ SOLVE
ESEL,S,MAT,,1 $ ESEL,R,CENT,Z,(0.0+0.0007)/2 $ BFE,ALL,HGEN,1,140.0/4.375000000000001e-07 $ ALLSEL
TIME,2.283160178 $ KBC,1 $ AUTOTS,OFF $ DELTIM,4.687150000004525e-05 $ SOLVE
ESEL,S,MAT,,1 $ ESEL,R,CENT,Z,(0.0+0.0007)/2 $ BFE,ALL,HGEN,1,700.0/4.375000000000001e-07 $ ALLSEL
TIME,2.30777611 $ KBC,1 $ AUTOTS,OFF $ DELTIM,0.001 $ SOLVE
ESEL,S,MAT,,1 $ ESEL,R,CENT,Z,(0.0+0.0007)/2 $ BFE,ALL,HGEN,1,140.0/4.375000000000001e-07 $ ALLSEL
TIME,2.307777634 $ KBC,1 $ AUTOTS,OFF $ DELTIM,1.25e-05 $ SOLVE
ESEL,S,MAT,,1 $ ESEL,R,CENT,Z,(0.0+0.0007)/2 $ BFE,ALL,HGEN,1,280.0/4.375000000000001e-07 $ ALLSEL
TIME,2.307844847 $ KBC,1 $ AUTOTS,OFF $ DELTIM,1.25e-05 $ SOLVE
ESEL,S,MAT,,1 $ ESEL,R,CENT,Z,(0.0+0.0007)/2 $ BFE,ALL,HGEN,1,84.0/4.375000000000001e-07 $ ALLSEL
TIME,2.307846548 $ KBC,1 $ AUTOTS,OFF $ DELTIM,1.25e-05 $ SOLVE
ESEL,S,MAT,,1 $ ESEL,R,CENT,Z,(0.0+0.0007)/2 $ BFE,ALL,HGEN,1,280.0/4.375000000000001e-07 $ ALLSEL
TIME,2.310022702 $ KBC,1 $ AUTOTS,OFF $ DELTIM,0.0002720192499999774 $ SOLVE
ESEL,S,MAT,,1 $ ESEL,R,CENT,Z,(0.0+0.0007)/2 $ BFE,ALL,HGEN,1,700.0/4.375000000000001e-07 $ ALLSEL
TIME,2.321372001 $ KBC,1 $ AUTOTS,OFF $ DELTIM,0.001 $ SOLVE
ESEL,S,MAT,,1 $ ESEL,R,CENT,Z,(0.0+0.0007)/2 $ BFE,ALL,HGEN,1,140.0/4.375000000000001e-07 $ ALLSEL
TIME,2.321446955 $ KBC,1 $ AUTOTS,OFF $ DELTIM,1.25e-05 $ SOLVE
ESEL,S,MAT,,1 $ ESEL,R,CENT,Z,(0.0+0.0007)/2 $ BFE,ALL,HGEN,1,140.0/4.375000000000001e-07 $ ALLSEL
TIME,2.32144848 $ KBC,1 $ AUTOTS,OFF $ DELTIM,1.25e-05 $ SOLVE
ESEL,S,MAT,,1 $ ESEL,R,CENT,Z,(0.0+0.0007)/2 $ BFE,ALL,HGEN,1,700.0/4.375000000000001e-07 $ ALLSEL
TIME,2.324240937 $ KBC,1 $ AUTOTS,OFF $ DELTIM,0.0003490571249999963 $ SOLVE
ESEL,S,MAT,,1 $ ESEL,R,CENT,Z,(0.0+0.0007)/2 $ BFE,ALL,HGEN,1,280.0/4.375000000000001e-07 $ ALLSEL
TIME,2.32436287 $ KBC,1 $ AUTOTS,OFF $ DELTIM,1.5241624999995373e-05 $ SOLVE
ESEL,S,MAT,,1 $ ESEL,R,CENT,Z,(0.0+0.0007)/2 $ BFE,ALL,HGEN,1,700.0/4.375000000000001e-07 $ ALLSEL
TIME,2.330034793 $ KBC,1 $ AUTOTS,OFF $ DELTIM,0.000708990374999996 $ SOLVE
ESEL,S,MAT,,1 $ ESEL,R,CENT,Z,(0.0+0.0007)/2 $ BFE,ALL,HGEN,1,140.0/4.375000000000001e-07 $ ALLSEL
TIME,2.330036108 $ KBC,1 $ AUTOTS,OFF $ DELTIM,1.25e-05 $ SOLVE
ESEL,S,MAT,,1 $ ESEL,R,CENT,Z,(0.0+0.0007)/2 $ BFE,ALL,HGEN,1,700.0/4.375000000000001e-07 $ ALLSEL
TIME,2.342344074 $ KBC,1 $ AUTOTS,OFF $ DELTIM,0.001 $ SOLVE
ESEL,S,MAT,,1 $ ESEL,R,CENT,Z,(0.0+0.0007)/2 $ BFE,ALL,HGEN,1,140.0/4.375000000000001e-07 $ ALLSEL
TIME,2.342720363 $ KBC,1 $ AUTOTS,OFF $ DELTIM,4.703612500001064e-05 $ SOLVE
ESEL,S,MAT,,1 $ ESEL,R,CENT,Z,(0.0+0.0007)/2 $ BFE,ALL,HGEN,1,700.0/4.375000000000001e-07 $ ALLSEL
TIME,2.367336295 $ KBC,1 $ AUTOTS,OFF $ DELTIM,0.001 $ SOLVE
ESEL,S,MAT,,1 $ ESEL,R,CENT,Z,(0.0+0.0007)/2 $ BFE,ALL,HGEN,1,140.0/4.375000000000001e-07 $ ALLSEL
TIME,2.367337819 $ KBC,1 $ AUTOTS,OFF $ DELTIM,1.25e-05 $ SOLVE
ESEL,S,MAT,,1 $ ESEL,R,CENT,Z,(0.0+0.0007)/2 $ BFE,ALL,HGEN,1,280.0/4.375000000000001e-07 $ ALLSEL
TIME,2.367394795 $ KBC,1 $ AUTOTS,OFF $ DELTIM,1.25e-05 $ SOLVE
ESEL,S,MAT,,1 $ ESEL,R,CENT,Z,(0.0+0.0007)/2 $ BFE,ALL,HGEN,1,280.0/4.375000000000001e-07 $ ALLSEL
TIME,2.369581185 $ KBC,1 $ AUTOTS,OFF $ DELTIM,0.00027329874999998394 $ SOLVE
ESEL,S,MAT,,1 $ ESEL,R,CENT,Z,(0.0+0.0007)/2 $ BFE,ALL,HGEN,1,700.0/4.375000000000001e-07 $ ALLSEL
TIME,2.380930485 $ KBC,1 $ AUTOTS,OFF $ DELTIM,0.001 $ SOLVE
ESEL,S,MAT,,1 $ ESEL,R,CENT,Z,(0.0+0.0007)/2 $ BFE,ALL,HGEN,1,140.0/4.375000000000001e-07 $ ALLSEL
TIME,2.381005438 $ KBC,1 $ AUTOTS,OFF $ DELTIM,1.25e-05 $ SOLVE
ESEL,S,MAT,,1 $ ESEL,R,CENT,Z,(0.0+0.0007)/2 $ BFE,ALL,HGEN,1,140.0/4.375000000000001e-07 $ ALLSEL
TIME,2.381006963 $ KBC,1 $ AUTOTS,OFF $ DELTIM,1.25e-05 $ SOLVE
ESEL,S,MAT,,1 $ ESEL,R,CENT,Z,(0.0+0.0007)/2 $ BFE,ALL,HGEN,1,700.0/4.375000000000001e-07 $ ALLSEL
TIME,2.383799421 $ KBC,1 $ AUTOTS,OFF $ DELTIM,0.00034905725000000665 $ SOLVE
ESEL,S,MAT,,1 $ ESEL,R,CENT,Z,(0.0+0.0007)/2 $ BFE,ALL,HGEN,1,280.0/4.375000000000001e-07 $ ALLSEL
TIME,2.383921353 $ KBC,1 $ AUTOTS,OFF $ DELTIM,1.5241499999985031e-05 $ SOLVE
ESEL,S,MAT,,1 $ ESEL,R,CENT,Z,(0.0+0.0007)/2 $ BFE,ALL,HGEN,1,700.0/4.375000000000001e-07 $ ALLSEL
TIME,2.389593277 $ KBC,1 $ AUTOTS,OFF $ DELTIM,0.0007089905000000063 $ SOLVE
ESEL,S,MAT,,1 $ ESEL,R,CENT,Z,(0.0+0.0007)/2 $ BFE,ALL,HGEN,1,140.0/4.375000000000001e-07 $ ALLSEL
TIME,2.389895927 $ KBC,1 $ AUTOTS,OFF $ DELTIM,3.7831250000008865e-05 $ SOLVE
ESEL,S,MAT,,1 $ ESEL,R,CENT,Z,(0.0+0.0007)/2 $ BFE,ALL,HGEN,1,700.0/4.375000000000001e-07 $ ALLSEL
TIME,2.414511859 $ KBC,1 $ AUTOTS,OFF $ DELTIM,0.001 $ SOLVE
ESEL,S,MAT,,1 $ ESEL,R,CENT,Z,(0.0+0.0007)/2 $ BFE,ALL,HGEN,1,280.0/4.375000000000001e-07 $ ALLSEL
TIME,2.414515235 $ KBC,1 $ AUTOTS,OFF $ DELTIM,1.25e-05 $ SOLVE
ESEL,S,MAT,,1 $ ESEL,R,CENT,Z,(0.0+0.0007)/2 $ BFE,ALL,HGEN,1,84.0/4.375000000000001e-07 $ ALLSEL
TIME,2.415145508 $ KBC,1 $ AUTOTS,OFF $ DELTIM,7.878412500000875e-05 $ SOLVE
ESEL,S,MAT,,1 $ ESEL,R,CENT,Z,(0.0+0.0007)/2 $ BFE,ALL,HGEN,1,280.0/4.375000000000001e-07 $ ALLSEL
TIME,2.41523683 $ KBC,1 $ AUTOTS,OFF $ DELTIM,1.25e-05 $ SOLVE
ESEL,S,MAT,,1 $ ESEL,R,CENT,Z,(0.0+0.0007)/2 $ BFE,ALL,HGEN,1,700.0/4.375000000000001e-07 $ ALLSEL
TIME,2.419828359 $ KBC,1 $ AUTOTS,OFF $ DELTIM,0.0005739411249999771 $ SOLVE
ESEL,S,MAT,,1 $ ESEL,R,CENT,Z,(0.0+0.0007)/2 $ BFE,ALL,HGEN,1,84.0/4.375000000000001e-07 $ ALLSEL
TIME,2.41983101 $ KBC,1 $ AUTOTS,OFF $ DELTIM,1.25e-05 $ SOLVE
ESEL,S,MAT,,1 $ ESEL,R,CENT,Z,(0.0+0.0007)/2 $ BFE,ALL,HGEN,1,280.0/4.375000000000001e-07 $ ALLSEL
TIME,2.419952943 $ KBC,1 $ AUTOTS,OFF $ DELTIM,1.5241625000050885e-05 $ SOLVE
ESEL,S,MAT,,1 $ ESEL,R,CENT,Z,(0.0+0.0007)/2 $ BFE,ALL,HGEN,1,140.0/4.375000000000001e-07 $ ALLSEL
TIME,2.420104267 $ KBC,1 $ AUTOTS,OFF $ DELTIM,1.891549999999409e-05 $ SOLVE
ESEL,S,MAT,,1 $ ESEL,R,CENT,Z,(0.0+0.0007)/2 $ BFE,ALL,HGEN,1,700.0/4.375000000000001e-07 $ ALLSEL
TIME,2.444720199 $ KBC,1 $ AUTOTS,OFF $ DELTIM,0.001 $ SOLVE
ESEL,S,MAT,,1 $ ESEL,R,CENT,Z,(0.0+0.0007)/2 $ BFE,ALL,HGEN,1,84.0/4.375000000000001e-07 $ ALLSEL
TIME,2.566035655 $ KBC,1 $ AUTOTS,OFF $ DELTIM,0.001 $ SOLVE
ESEL,S,MAT,,1 $ ESEL,R,CENT,Z,(0.0+0.0007)/2 $ BFE,ALL,HGEN,1,84.0/4.375000000000001e-07 $ ALLSEL
TIME,2.632678867 $ KBC,1 $ AUTOTS,OFF $ DELTIM,0.001 $ SOLVE
ESEL,S,MAT,,1 $ ESEL,R,CENT,Z,(0.0+0.0007)/2 $ BFE,ALL,HGEN,1,700.0/4.375000000000001e-07 $ ALLSEL
TIME,2.644986833 $ KBC,1 $ AUTOTS,OFF $ DELTIM,0.001 $ SOLVE
ESEL,S,MAT,,1 $ ESEL,R,CENT,Z,(0.0+0.0007)/2 $ BFE,ALL,HGEN,1,140.0/4.375000000000001e-07 $ ALLSEL
TIME,2.64506331 $ KBC,1 $ AUTOTS,OFF $ DELTIM,1.25e-05 $ SOLVE
ESEL,S,MAT,,1 $ ESEL,R,CENT,Z,(0.0+0.0007)/2 $ BFE,ALL,HGEN,1,280.0/4.375000000000001e-07 $ ALLSEL
TIME,2.64511691 $ KBC,1 $ AUTOTS,OFF $ DELTIM,1.25e-05 $ SOLVE
ESEL,S,MAT,,1 $ ESEL,R,CENT,Z,(0.0+0.0007)/2 $ BFE,ALL,HGEN,1,280.0/4.375000000000001e-07 $ ALLSEL
TIME,2.647211979 $ KBC,1 $ AUTOTS,OFF $ DELTIM,0.0002618836250000145 $ SOLVE
ESEL,S,MAT,,1 $ ESEL,R,CENT,Z,(0.0+0.0007)/2 $ BFE,ALL,HGEN,1,700.0/4.375000000000001e-07 $ ALLSEL
TIME,2.653969748 $ KBC,1 $ AUTOTS,OFF $ DELTIM,0.0008447211250000031 $ SOLVE
ESEL,S,MAT,,1 $ ESEL,R,CENT,Z,(0.0+0.0007)/2 $ BFE,ALL,HGEN,1,84.0/4.375000000000001e-07 $ ALLSEL
TIME,2.65481345 $ KBC,1 $ AUTOTS,OFF $ DELTIM,0.00010546274999995164 $ SOLVE
ESEL,S,MAT,,1 $ ESEL,R,CENT,Z,(0.0+0.0007)/2 $ BFE,ALL,HGEN,1,140.0/4.375000000000001e-07 $ ALLSEL
TIME,2.654889928 $ KBC,1 $ AUTOTS,OFF $ DELTIM,1.25e-05 $ SOLVE
ESEL,S,MAT,,1 $ ESEL,R,CENT,Z,(0.0+0.0007)/2 $ BFE,ALL,HGEN,1,700.0/4.375000000000001e-07 $ ALLSEL
TIME,2.663354309 $ KBC,1 $ AUTOTS,OFF $ DELTIM,0.001 $ SOLVE
ESEL,S,MAT,,1 $ ESEL,R,CENT,Z,(0.0+0.0007)/2 $ BFE,ALL,HGEN,1,700.0/4.375000000000001e-07 $ ALLSEL
TIME,2.675662275 $ KBC,1 $ AUTOTS,OFF $ DELTIM,0.001 $ SOLVE
ESEL,S,MAT,,1 $ ESEL,R,CENT,Z,(0.0+0.0007)/2 $ BFE,ALL,HGEN,1,140.0/4.375000000000001e-07 $ ALLSEL
TIME,2.675890078 $ KBC,1 $ AUTOTS,OFF $ DELTIM,2.84753750000033e-05 $ SOLVE
ESEL,S,MAT,,1 $ ESEL,R,CENT,Z,(0.0+0.0007)/2 $ BFE,ALL,HGEN,1,280.0/4.375000000000001e-07 $ ALLSEL
TIME,2.675957291 $ KBC,1 $ AUTOTS,OFF $ DELTIM,1.25e-05 $ SOLVE
ESEL,S,MAT,,1 $ ESEL,R,CENT,Z,(0.0+0.0007)/2 $ BFE,ALL,HGEN,1,84.0/4.375000000000001e-07 $ ALLSEL
TIME,2.675958973 $ KBC,1 $ AUTOTS,OFF $ DELTIM,1.25e-05 $ SOLVE
ESEL,S,MAT,,1 $ ESEL,R,CENT,Z,(0.0+0.0007)/2 $ BFE,ALL,HGEN,1,280.0/4.375000000000001e-07 $ ALLSEL
TIME,2.678135126 $ KBC,1 $ AUTOTS,OFF $ DELTIM,0.00027201912499996705 $ SOLVE
ESEL,S,MAT,,1 $ ESEL,R,CENT,Z,(0.0+0.0007)/2 $ BFE,ALL,HGEN,1,700.0/4.375000000000001e-07 $ ALLSEL
TIME,2.689484426 $ KBC,1 $ AUTOTS,OFF $ DELTIM,0.001 $ SOLVE
ESEL,S,MAT,,1 $ ESEL,R,CENT,Z,(0.0+0.0007)/2 $ BFE,ALL,HGEN,1,140.0/4.375000000000001e-07 $ ALLSEL
TIME,2.689559379 $ KBC,1 $ AUTOTS,OFF $ DELTIM,1.25e-05 $ SOLVE
ESEL,S,MAT,,1 $ ESEL,R,CENT,Z,(0.0+0.0007)/2 $ BFE,ALL,HGEN,1,140.0/4.375000000000001e-07 $ ALLSEL
TIME,2.689560904 $ KBC,1 $ AUTOTS,OFF $ DELTIM,1.25e-05 $ SOLVE
ESEL,S,MAT,,1 $ ESEL,R,CENT,Z,(0.0+0.0007)/2 $ BFE,ALL,HGEN,1,700.0/4.375000000000001e-07 $ ALLSEL
TIME,2.692353361 $ KBC,1 $ AUTOTS,OFF $ DELTIM,0.0003490571249999963 $ SOLVE
ESEL,S,MAT,,1 $ ESEL,R,CENT,Z,(0.0+0.0007)/2 $ BFE,ALL,HGEN,1,280.0/4.375000000000001e-07 $ ALLSEL
TIME,2.692475294 $ KBC,1 $ AUTOTS,OFF $ DELTIM,1.5241624999995373e-05 $ SOLVE
ESEL,S,MAT,,1 $ ESEL,R,CENT,Z,(0.0+0.0007)/2 $ BFE,ALL,HGEN,1,700.0/4.375000000000001e-07 $ ALLSEL
TIME,2.698147218 $ KBC,1 $ AUTOTS,OFF $ DELTIM,0.0007089905000000063 $ SOLVE
ESEL,S,MAT,,1 $ ESEL,R,CENT,Z,(0.0+0.0007)/2 $ BFE,ALL,HGEN,1,140.0/4.375000000000001e-07 $ ALLSEL
TIME,2.698149849 $ KBC,1 $ AUTOTS,OFF $ DELTIM,1.25e-05 $ SOLVE
ESEL,S,MAT,,1 $ ESEL,R,CENT,Z,(0.0+0.0007)/2 $ BFE,ALL,HGEN,1,700.0/4.375000000000001e-07 $ ALLSEL
TIME,2.710457815 $ KBC,1 $ AUTOTS,OFF $ DELTIM,0.001 $ SOLVE
ESEL,S,MAT,,1 $ ESEL,R,CENT,Z,(0.0+0.0007)/2 $ BFE,ALL,HGEN,1,140.0/4.375000000000001e-07 $ ALLSEL
TIME,2.710832788 $ KBC,1 $ AUTOTS,OFF $ DELTIM,4.687162500000008e-05 $ SOLVE
ESEL,S,MAT,,1 $ ESEL,R,CENT,Z,(0.0+0.0007)/2 $ BFE,ALL,HGEN,1,700.0/4.375000000000001e-07 $ ALLSEL
TIME,2.73544872 $ KBC,1 $ AUTOTS,OFF $ DELTIM,0.001 $ SOLVE
ESEL,S,MAT,,1 $ ESEL,R,CENT,Z,(0.0+0.0007)/2 $ BFE,ALL,HGEN,1,140.0/4.375000000000001e-07 $ ALLSEL
TIME,2.735450243 $ KBC,1 $ AUTOTS,OFF $ DELTIM,1.25e-05 $ SOLVE
ESEL,S,MAT,,1 $ ESEL,R,CENT,Z,(0.0+0.0007)/2 $ BFE,ALL,HGEN,1,280.0/4.375000000000001e-07 $ ALLSEL
TIME,2.735517456 $ KBC,1 $ AUTOTS,OFF $ DELTIM,1.25e-05 $ SOLVE
ESEL,S,MAT,,1 $ ESEL,R,CENT,Z,(0.0+0.0007)/2 $ BFE,ALL,HGEN,1,84.0/4.375000000000001e-07 $ ALLSEL
TIME,2.735519158 $ KBC,1 $ AUTOTS,OFF $ DELTIM,1.25e-05 $ SOLVE
ESEL,S,MAT,,1 $ ESEL,R,CENT,Z,(0.0+0.0007)/2 $ BFE,ALL,HGEN,1,280.0/4.375000000000001e-07 $ ALLSEL
TIME,2.737695311 $ KBC,1 $ AUTOTS,OFF $ DELTIM,0.00027201912500002257 $ SOLVE
ESEL,S,MAT,,1 $ ESEL,R,CENT,Z,(0.0+0.0007)/2 $ BFE,ALL,HGEN,1,700.0/4.375000000000001e-07 $ ALLSEL
TIME,2.749044611 $ KBC,1 $ AUTOTS,OFF $ DELTIM,0.001 $ SOLVE
ESEL,S,MAT,,1 $ ESEL,R,CENT,Z,(0.0+0.0007)/2 $ BFE,ALL,HGEN,1,140.0/4.375000000000001e-07 $ ALLSEL
TIME,2.749119564 $ KBC,1 $ AUTOTS,OFF $ DELTIM,1.25e-05 $ SOLVE
ESEL,S,MAT,,1 $ ESEL,R,CENT,Z,(0.0+0.0007)/2 $ BFE,ALL,HGEN,1,140.0/4.375000000000001e-07 $ ALLSEL
TIME,2.749121089 $ KBC,1 $ AUTOTS,OFF $ DELTIM,1.25e-05 $ SOLVE
ESEL,S,MAT,,1 $ ESEL,R,CENT,Z,(0.0+0.0007)/2 $ BFE,ALL,HGEN,1,700.0/4.375000000000001e-07 $ ALLSEL
TIME,2.751913546 $ KBC,1 $ AUTOTS,OFF $ DELTIM,0.0003490571249999963 $ SOLVE
ESEL,S,MAT,,1 $ ESEL,R,CENT,Z,(0.0+0.0007)/2 $ BFE,ALL,HGEN,1,280.0/4.375000000000001e-07 $ ALLSEL
TIME,2.752035479 $ KBC,1 $ AUTOTS,OFF $ DELTIM,1.5241624999995373e-05 $ SOLVE
ESEL,S,MAT,,1 $ ESEL,R,CENT,Z,(0.0+0.0007)/2 $ BFE,ALL,HGEN,1,700.0/4.375000000000001e-07 $ ALLSEL
TIME,2.757707402 $ KBC,1 $ AUTOTS,OFF $ DELTIM,0.000708990374999996 $ SOLVE
ESEL,S,MAT,,1 $ ESEL,R,CENT,Z,(0.0+0.0007)/2 $ BFE,ALL,HGEN,1,140.0/4.375000000000001e-07 $ ALLSEL
TIME,2.757708717 $ KBC,1 $ AUTOTS,OFF $ DELTIM,1.25e-05 $ SOLVE
ESEL,S,MAT,,1 $ ESEL,R,CENT,Z,(0.0+0.0007)/2 $ BFE,ALL,HGEN,1,700.0/4.375000000000001e-07 $ ALLSEL
TIME,2.770016683 $ KBC,1 $ AUTOTS,OFF $ DELTIM,0.001 $ SOLVE
ESEL,S,MAT,,1 $ ESEL,R,CENT,Z,(0.0+0.0007)/2 $ BFE,ALL,HGEN,1,140.0/4.375000000000001e-07 $ ALLSEL
TIME,2.770392973 $ KBC,1 $ AUTOTS,OFF $ DELTIM,4.7036249999965474e-05 $ SOLVE
ESEL,S,MAT,,1 $ ESEL,R,CENT,Z,(0.0+0.0007)/2 $ BFE,ALL,HGEN,1,700.0/4.375000000000001e-07 $ ALLSEL
TIME,2.795008904 $ KBC,1 $ AUTOTS,OFF $ DELTIM,0.001 $ SOLVE
ESEL,S,MAT,,1 $ ESEL,R,CENT,Z,(0.0+0.0007)/2 $ BFE,ALL,HGEN,1,140.0/4.375000000000001e-07 $ ALLSEL
TIME,2.795010428 $ KBC,1 $ AUTOTS,OFF $ DELTIM,1.25e-05 $ SOLVE
ESEL,S,MAT,,1 $ ESEL,R,CENT,Z,(0.0+0.0007)/2 $ BFE,ALL,HGEN,1,280.0/4.375000000000001e-07 $ ALLSEL
TIME,2.795067404 $ KBC,1 $ AUTOTS,OFF $ DELTIM,1.25e-05 $ SOLVE
ESEL,S,MAT,,1 $ ESEL,R,CENT,Z,(0.0+0.0007)/2 $ BFE,ALL,HGEN,1,280.0/4.375000000000001e-07 $ ALLSEL
TIME,2.797253794 $ KBC,1 $ AUTOTS,OFF $ DELTIM,0.00027329874999998394 $ SOLVE
ESEL,S,MAT,,1 $ ESEL,R,CENT,Z,(0.0+0.0007)/2 $ BFE,ALL,HGEN,1,700.0/4.375000000000001e-07 $ ALLSEL
TIME,2.808603094 $ KBC,1 $ AUTOTS,OFF $ DELTIM,0.001 $ SOLVE
ESEL,S,MAT,,1 $ ESEL,R,CENT,Z,(0.0+0.0007)/2 $ BFE,ALL,HGEN,1,140.0/4.375000000000001e-07 $ ALLSEL
TIME,2.808678047 $ KBC,1 $ AUTOTS,OFF $ DELTIM,1.25e-05 $ SOLVE
ESEL,S,MAT,,1 $ ESEL,R,CENT,Z,(0.0+0.0007)/2 $ BFE,ALL,HGEN,1,140.0/4.375000000000001e-07 $ ALLSEL
TIME,2.808679572 $ KBC,1 $ AUTOTS,OFF $ DELTIM,1.25e-05 $ SOLVE
ESEL,S,MAT,,1 $ ESEL,R,CENT,Z,(0.0+0.0007)/2 $ BFE,ALL,HGEN,1,700.0/4.375000000000001e-07 $ ALLSEL
TIME,2.81147203 $ KBC,1 $ AUTOTS,OFF $ DELTIM,0.00034905725000000665 $ SOLVE
ESEL,S,MAT,,1 $ ESEL,R,CENT,Z,(0.0+0.0007)/2 $ BFE,ALL,HGEN,1,280.0/4.375000000000001e-07 $ ALLSEL
TIME,2.811593962 $ KBC,1 $ AUTOTS,OFF $ DELTIM,1.5241499999985031e-05 $ SOLVE
ESEL,S,MAT,,1 $ ESEL,R,CENT,Z,(0.0+0.0007)/2 $ BFE,ALL,HGEN,1,700.0/4.375000000000001e-07 $ ALLSEL
TIME,2.817265886 $ KBC,1 $ AUTOTS,OFF $ DELTIM,0.0007089905000000063 $ SOLVE
ESEL,S,MAT,,1 $ ESEL,R,CENT,Z,(0.0+0.0007)/2 $ BFE,ALL,HGEN,1,140.0/4.375000000000001e-07 $ ALLSEL
TIME,2.817568536 $ KBC,1 $ AUTOTS,OFF $ DELTIM,3.7831250000008865e-05 $ SOLVE
ESEL,S,MAT,,1 $ ESEL,R,CENT,Z,(0.0+0.0007)/2 $ BFE,ALL,HGEN,1,700.0/4.375000000000001e-07 $ ALLSEL
TIME,2.842184468 $ KBC,1 $ AUTOTS,OFF $ DELTIM,0.001 $ SOLVE
ESEL,S,MAT,,1 $ ESEL,R,CENT,Z,(0.0+0.0007)/2 $ BFE,ALL,HGEN,1,280.0/4.375000000000001e-07 $ ALLSEL
TIME,2.842187844 $ KBC,1 $ AUTOTS,OFF $ DELTIM,1.25e-05 $ SOLVE
ESEL,S,MAT,,1 $ ESEL,R,CENT,Z,(0.0+0.0007)/2 $ BFE,ALL,HGEN,1,84.0/4.375000000000001e-07 $ ALLSEL
TIME,2.842818117 $ KBC,1 $ AUTOTS,OFF $ DELTIM,7.878412500000875e-05 $ SOLVE
ESEL,S,MAT,,1 $ ESEL,R,CENT,Z,(0.0+0.0007)/2 $ BFE,ALL,HGEN,1,280.0/4.375000000000001e-07 $ ALLSEL
TIME,2.842909439 $ KBC,1 $ AUTOTS,OFF $ DELTIM,1.25e-05 $ SOLVE
ESEL,S,MAT,,1 $ ESEL,R,CENT,Z,(0.0+0.0007)/2 $ BFE,ALL,HGEN,1,700.0/4.375000000000001e-07 $ ALLSEL
TIME,2.847500969 $ KBC,1 $ AUTOTS,OFF $ DELTIM,0.0005739412499999874 $ SOLVE
ESEL,S,MAT,,1 $ ESEL,R,CENT,Z,(0.0+0.0007)/2 $ BFE,ALL,HGEN,1,84.0/4.375000000000001e-07 $ ALLSEL
TIME,2.847503619 $ KBC,1 $ AUTOTS,OFF $ DELTIM,1.25e-05 $ SOLVE
ESEL,S,MAT,,1 $ ESEL,R,CENT,Z,(0.0+0.0007)/2 $ BFE,ALL,HGEN,1,280.0/4.375000000000001e-07 $ ALLSEL
TIME,2.847625552 $ KBC,1 $ AUTOTS,OFF $ DELTIM,1.5241624999995373e-05 $ SOLVE
ESEL,S,MAT,,1 $ ESEL,R,CENT,Z,(0.0+0.0007)/2 $ BFE,ALL,HGEN,1,140.0/4.375000000000001e-07 $ ALLSEL
TIME,2.847776876 $ KBC,1 $ AUTOTS,OFF $ DELTIM,1.89155000000496e-05 $ SOLVE
ESEL,S,MAT,,1 $ ESEL,R,CENT,Z,(0.0+0.0007)/2 $ BFE,ALL,HGEN,1,700.0/4.375000000000001e-07 $ ALLSEL
TIME,2.872392808 $ KBC,1 $ AUTOTS,OFF $ DELTIM,0.001 $ SOLVE
ESEL,S,MAT,,1 $ ESEL,R,CENT,Z,(0.0+0.0007)/2 $ BFE,ALL,HGEN,1,84.0/4.375000000000001e-07 $ ALLSEL
TIME,2.993708264 $ KBC,1 $ AUTOTS,OFF $ DELTIM,0.001 $ SOLVE
ESEL,S,MAT,,1 $ ESEL,R,CENT,Z,(0.0+0.0007)/2 $ BFE,ALL,HGEN,1,84.0/4.375000000000001e-07 $ ALLSEL
TIME,3.060351476 $ KBC,1 $ AUTOTS,OFF $ DELTIM,0.001 $ SOLVE
ESEL,S,MAT,,1 $ ESEL,R,CENT,Z,(0.0+0.0007)/2 $ BFE,ALL,HGEN,1,700.0/4.375000000000001e-07 $ ALLSEL
TIME,3.072659442 $ KBC,1 $ AUTOTS,OFF $ DELTIM,0.001 $ SOLVE
ESEL,S,MAT,,1 $ ESEL,R,CENT,Z,(0.0+0.0007)/2 $ BFE,ALL,HGEN,1,140.0/4.375000000000001e-07 $ ALLSEL
TIME,3.072735919 $ KBC,1 $ AUTOTS,OFF $ DELTIM,1.25e-05 $ SOLVE
ESEL,S,MAT,,1 $ ESEL,R,CENT,Z,(0.0+0.0007)/2 $ BFE,ALL,HGEN,1,280.0/4.375000000000001e-07 $ ALLSEL
TIME,3.072789519 $ KBC,1 $ AUTOTS,OFF $ DELTIM,1.25e-05 $ SOLVE
ESEL,S,MAT,,1 $ ESEL,R,CENT,Z,(0.0+0.0007)/2 $ BFE,ALL,HGEN,1,280.0/4.375000000000001e-07 $ ALLSEL
TIME,3.074884588 $ KBC,1 $ AUTOTS,OFF $ DELTIM,0.0002618836250000145 $ SOLVE
ESEL,S,MAT,,1 $ ESEL,R,CENT,Z,(0.0+0.0007)/2 $ BFE,ALL,HGEN,1,700.0/4.375000000000001e-07 $ ALLSEL
TIME,3.081642358 $ KBC,1 $ AUTOTS,OFF $ DELTIM,0.0008447212499999579 $ SOLVE
ESEL,S,MAT,,1 $ ESEL,R,CENT,Z,(0.0+0.0007)/2 $ BFE,ALL,HGEN,1,84.0/4.375000000000001e-07 $ ALLSEL
TIME,3.082486059 $ KBC,1 $ AUTOTS,OFF $ DELTIM,0.00010546262499999681 $ SOLVE
ESEL,S,MAT,,1 $ ESEL,R,CENT,Z,(0.0+0.0007)/2 $ BFE,ALL,HGEN,1,140.0/4.375000000000001e-07 $ ALLSEL
TIME,3.082562537 $ KBC,1 $ AUTOTS,OFF $ DELTIM,1.25e-05 $ SOLVE
ESEL,S,MAT,,1 $ ESEL,R,CENT,Z,(0.0+0.0007)/2 $ BFE,ALL,HGEN,1,700.0/4.375000000000001e-07 $ ALLSEL
TIME,3.091026918 $ KBC,1 $ AUTOTS,OFF $ DELTIM,0.001 $ SOLVE
ESEL,S,MAT,,1 $ ESEL,R,CENT,Z,(0.0+0.0007)/2 $ BFE,ALL,HGEN,1,700.0/4.375000000000001e-07 $ ALLSEL
TIME,3.103334884 $ KBC,1 $ AUTOTS,OFF $ DELTIM,0.001 $ SOLVE
ESEL,S,MAT,,1 $ ESEL,R,CENT,Z,(0.0+0.0007)/2 $ BFE,ALL,HGEN,1,140.0/4.375000000000001e-07 $ ALLSEL
TIME,3.103562687 $ KBC,1 $ AUTOTS,OFF $ DELTIM,2.84753750000033e-05 $ SOLVE
ESEL,S,MAT,,1 $ ESEL,R,CENT,Z,(0.0+0.0007)/2 $ BFE,ALL,HGEN,1,280.0/4.375000000000001e-07 $ ALLSEL
TIME,3.1036299 $ KBC,1 $ AUTOTS,OFF $ DELTIM,1.25e-05 $ SOLVE
ESEL,S,MAT,,1 $ ESEL,R,CENT,Z,(0.0+0.0007)/2 $ BFE,ALL,HGEN,1,84.0/4.375000000000001e-07 $ ALLSEL
TIME,3.103631582 $ KBC,1 $ AUTOTS,OFF $ DELTIM,1.25e-05 $ SOLVE
ESEL,S,MAT,,1 $ ESEL,R,CENT,Z,(0.0+0.0007)/2 $ BFE,ALL,HGEN,1,280.0/4.375000000000001e-07 $ ALLSEL
TIME,3.105807735 $ KBC,1 $ AUTOTS,OFF $ DELTIM,0.00027201912499996705 $ SOLVE
ESEL,S,MAT,,1 $ ESEL,R,CENT,Z,(0.0+0.0007)/2 $ BFE,ALL,HGEN,1,700.0/4.375000000000001e-07 $ ALLSEL
TIME,3.117157035 $ KBC,1 $ AUTOTS,OFF $ DELTIM,0.001 $ SOLVE
ESEL,S,MAT,,1 $ ESEL,R,CENT,Z,(0.0+0.0007)/2 $ BFE,ALL,HGEN,1,140.0/4.375000000000001e-07 $ ALLSEL
TIME,3.117231988 $ KBC,1 $ AUTOTS,OFF $ DELTIM,1.25e-05 $ SOLVE
ESEL,S,MAT,,1 $ ESEL,R,CENT,Z,(0.0+0.0007)/2 $ BFE,ALL,HGEN,1,140.0/4.375000000000001e-07 $ ALLSEL
TIME,3.117233513 $ KBC,1 $ AUTOTS,OFF $ DELTIM,1.25e-05 $ SOLVE
ESEL,S,MAT,,1 $ ESEL,R,CENT,Z,(0.0+0.0007)/2 $ BFE,ALL,HGEN,1,700.0/4.375000000000001e-07 $ ALLSEL
TIME,3.120025971 $ KBC,1 $ AUTOTS,OFF $ DELTIM,0.00034905725000000665 $ SOLVE
ESEL,S,MAT,,1 $ ESEL,R,CENT,Z,(0.0+0.0007)/2 $ BFE,ALL,HGEN,1,280.0/4.375000000000001e-07 $ ALLSEL
TIME,3.120147903 $ KBC,1 $ AUTOTS,OFF $ DELTIM,1.5241499999985031e-05 $ SOLVE
ESEL,S,MAT,,1 $ ESEL,R,CENT,Z,(0.0+0.0007)/2 $ BFE,ALL,HGEN,1,700.0/4.375000000000001e-07 $ ALLSEL
TIME,3.125819827 $ KBC,1 $ AUTOTS,OFF $ DELTIM,0.0007089905000000063 $ SOLVE
ESEL,S,MAT,,1 $ ESEL,R,CENT,Z,(0.0+0.0007)/2 $ BFE,ALL,HGEN,1,140.0/4.375000000000001e-07 $ ALLSEL
TIME,3.125822458 $ KBC,1 $ AUTOTS,OFF $ DELTIM,1.25e-05 $ SOLVE
ESEL,S,MAT,,1 $ ESEL,R,CENT,Z,(0.0+0.0007)/2 $ BFE,ALL,HGEN,1,700.0/4.375000000000001e-07 $ ALLSEL
TIME,3.138130424 $ KBC,1 $ AUTOTS,OFF $ DELTIM,0.001 $ SOLVE
ESEL,S,MAT,,1 $ ESEL,R,CENT,Z,(0.0+0.0007)/2 $ BFE,ALL,HGEN,1,140.0/4.375000000000001e-07 $ ALLSEL
TIME,3.138505397 $ KBC,1 $ AUTOTS,OFF $ DELTIM,4.687162500000008e-05 $ SOLVE
ESEL,S,MAT,,1 $ ESEL,R,CENT,Z,(0.0+0.0007)/2 $ BFE,ALL,HGEN,1,700.0/4.375000000000001e-07 $ ALLSEL
TIME,3.163121329 $ KBC,1 $ AUTOTS,OFF $ DELTIM,0.001 $ SOLVE
ESEL,S,MAT,,1 $ ESEL,R,CENT,Z,(0.0+0.0007)/2 $ BFE,ALL,HGEN,1,140.0/4.375000000000001e-07 $ ALLSEL
TIME,3.163122852 $ KBC,1 $ AUTOTS,OFF $ DELTIM,1.25e-05 $ SOLVE
ESEL,S,MAT,,1 $ ESEL,R,CENT,Z,(0.0+0.0007)/2 $ BFE,ALL,HGEN,1,280.0/4.375000000000001e-07 $ ALLSEL
TIME,3.163190065 $ KBC,1 $ AUTOTS,OFF $ DELTIM,1.25e-05 $ SOLVE
ESEL,S,MAT,,1 $ ESEL,R,CENT,Z,(0.0+0.0007)/2 $ BFE,ALL,HGEN,1,84.0/4.375000000000001e-07 $ ALLSEL
TIME,3.163191767 $ KBC,1 $ AUTOTS,OFF $ DELTIM,1.25e-05 $ SOLVE
ESEL,S,MAT,,1 $ ESEL,R,CENT,Z,(0.0+0.0007)/2 $ BFE,ALL,HGEN,1,280.0/4.375000000000001e-07 $ ALLSEL
TIME,3.16536792 $ KBC,1 $ AUTOTS,OFF $ DELTIM,0.00027201912500002257 $ SOLVE
ESEL,S,MAT,,1 $ ESEL,R,CENT,Z,(0.0+0.0007)/2 $ BFE,ALL,HGEN,1,700.0/4.375000000000001e-07 $ ALLSEL
TIME,3.17671722 $ KBC,1 $ AUTOTS,OFF $ DELTIM,0.001 $ SOLVE
ESEL,S,MAT,,1 $ ESEL,R,CENT,Z,(0.0+0.0007)/2 $ BFE,ALL,HGEN,1,140.0/4.375000000000001e-07 $ ALLSEL
TIME,3.176792173 $ KBC,1 $ AUTOTS,OFF $ DELTIM,1.25e-05 $ SOLVE
ESEL,S,MAT,,1 $ ESEL,R,CENT,Z,(0.0+0.0007)/2 $ BFE,ALL,HGEN,1,140.0/4.375000000000001e-07 $ ALLSEL
TIME,3.176793698 $ KBC,1 $ AUTOTS,OFF $ DELTIM,1.25e-05 $ SOLVE
ESEL,S,MAT,,1 $ ESEL,R,CENT,Z,(0.0+0.0007)/2 $ BFE,ALL,HGEN,1,700.0/4.375000000000001e-07 $ ALLSEL
TIME,3.179586156 $ KBC,1 $ AUTOTS,OFF $ DELTIM,0.00034905725000000665 $ SOLVE
ESEL,S,MAT,,1 $ ESEL,R,CENT,Z,(0.0+0.0007)/2 $ BFE,ALL,HGEN,1,280.0/4.375000000000001e-07 $ ALLSEL
TIME,3.179708088 $ KBC,1 $ AUTOTS,OFF $ DELTIM,1.5241499999985031e-05 $ SOLVE
ESEL,S,MAT,,1 $ ESEL,R,CENT,Z,(0.0+0.0007)/2 $ BFE,ALL,HGEN,1,700.0/4.375000000000001e-07 $ ALLSEL
TIME,3.185380012 $ KBC,1 $ AUTOTS,OFF $ DELTIM,0.0007089905000000063 $ SOLVE
ESEL,S,MAT,,1 $ ESEL,R,CENT,Z,(0.0+0.0007)/2 $ BFE,ALL,HGEN,1,140.0/4.375000000000001e-07 $ ALLSEL
TIME,3.185381326 $ KBC,1 $ AUTOTS,OFF $ DELTIM,1.25e-05 $ SOLVE
ESEL,S,MAT,,1 $ ESEL,R,CENT,Z,(0.0+0.0007)/2 $ BFE,ALL,HGEN,1,700.0/4.375000000000001e-07 $ ALLSEL
TIME,3.197689292 $ KBC,1 $ AUTOTS,OFF $ DELTIM,0.001 $ SOLVE
ESEL,S,MAT,,1 $ ESEL,R,CENT,Z,(0.0+0.0007)/2 $ BFE,ALL,HGEN,1,140.0/4.375000000000001e-07 $ ALLSEL
TIME,3.198065582 $ KBC,1 $ AUTOTS,OFF $ DELTIM,4.7036249999965474e-05 $ SOLVE
ESEL,S,MAT,,1 $ ESEL,R,CENT,Z,(0.0+0.0007)/2 $ BFE,ALL,HGEN,1,700.0/4.375000000000001e-07 $ ALLSEL
TIME,3.222681514 $ KBC,1 $ AUTOTS,OFF $ DELTIM,0.001 $ SOLVE
ESEL,S,MAT,,1 $ ESEL,R,CENT,Z,(0.0+0.0007)/2 $ BFE,ALL,HGEN,1,140.0/4.375000000000001e-07 $ ALLSEL
TIME,3.222683037 $ KBC,1 $ AUTOTS,OFF $ DELTIM,1.25e-05 $ SOLVE
ESEL,S,MAT,,1 $ ESEL,R,CENT,Z,(0.0+0.0007)/2 $ BFE,ALL,HGEN,1,280.0/4.375000000000001e-07 $ ALLSEL
TIME,3.222740013 $ KBC,1 $ AUTOTS,OFF $ DELTIM,1.25e-05 $ SOLVE
ESEL,S,MAT,,1 $ ESEL,R,CENT,Z,(0.0+0.0007)/2 $ BFE,ALL,HGEN,1,280.0/4.375000000000001e-07 $ ALLSEL
TIME,3.224926403 $ KBC,1 $ AUTOTS,OFF $ DELTIM,0.00027329874999998394 $ SOLVE
ESEL,S,MAT,,1 $ ESEL,R,CENT,Z,(0.0+0.0007)/2 $ BFE,ALL,HGEN,1,700.0/4.375000000000001e-07 $ ALLSEL
TIME,3.236275703 $ KBC,1 $ AUTOTS,OFF $ DELTIM,0.001 $ SOLVE
ESEL,S,MAT,,1 $ ESEL,R,CENT,Z,(0.0+0.0007)/2 $ BFE,ALL,HGEN,1,140.0/4.375000000000001e-07 $ ALLSEL
TIME,3.236350657 $ KBC,1 $ AUTOTS,OFF $ DELTIM,1.25e-05 $ SOLVE
ESEL,S,MAT,,1 $ ESEL,R,CENT,Z,(0.0+0.0007)/2 $ BFE,ALL,HGEN,1,140.0/4.375000000000001e-07 $ ALLSEL
TIME,3.236352181 $ KBC,1 $ AUTOTS,OFF $ DELTIM,1.25e-05 $ SOLVE
ESEL,S,MAT,,1 $ ESEL,R,CENT,Z,(0.0+0.0007)/2 $ BFE,ALL,HGEN,1,700.0/4.375000000000001e-07 $ ALLSEL
TIME,3.239144639 $ KBC,1 $ AUTOTS,OFF $ DELTIM,0.00034905725000000665 $ SOLVE
ESEL,S,MAT,,1 $ ESEL,R,CENT,Z,(0.0+0.0007)/2 $ BFE,ALL,HGEN,1,280.0/4.375000000000001e-07 $ ALLSEL
TIME,3.239266572 $ KBC,1 $ AUTOTS,OFF $ DELTIM,1.5241624999995373e-05 $ SOLVE
ESEL,S,MAT,,1 $ ESEL,R,CENT,Z,(0.0+0.0007)/2 $ BFE,ALL,HGEN,1,700.0/4.375000000000001e-07 $ ALLSEL
TIME,3.244938495 $ KBC,1 $ AUTOTS,OFF $ DELTIM,0.000708990374999996 $ SOLVE
ESEL,S,MAT,,1 $ ESEL,R,CENT,Z,(0.0+0.0007)/2 $ BFE,ALL,HGEN,1,140.0/4.375000000000001e-07 $ ALLSEL
TIME,3.245241145 $ KBC,1 $ AUTOTS,OFF $ DELTIM,3.7831250000008865e-05 $ SOLVE
ESEL,S,MAT,,1 $ ESEL,R,CENT,Z,(0.0+0.0007)/2 $ BFE,ALL,HGEN,1,700.0/4.375000000000001e-07 $ ALLSEL
TIME,3.269857077 $ KBC,1 $ AUTOTS,OFF $ DELTIM,0.001 $ SOLVE
ESEL,S,MAT,,1 $ ESEL,R,CENT,Z,(0.0+0.0007)/2 $ BFE,ALL,HGEN,1,280.0/4.375000000000001e-07 $ ALLSEL
TIME,3.269860453 $ KBC,1 $ AUTOTS,OFF $ DELTIM,1.25e-05 $ SOLVE
ESEL,S,MAT,,1 $ ESEL,R,CENT,Z,(0.0+0.0007)/2 $ BFE,ALL,HGEN,1,84.0/4.375000000000001e-07 $ ALLSEL
TIME,3.270490726 $ KBC,1 $ AUTOTS,OFF $ DELTIM,7.878412499995324e-05 $ SOLVE
ESEL,S,MAT,,1 $ ESEL,R,CENT,Z,(0.0+0.0007)/2 $ BFE,ALL,HGEN,1,280.0/4.375000000000001e-07 $ ALLSEL
TIME,3.270582048 $ KBC,1 $ AUTOTS,OFF $ DELTIM,1.25e-05 $ SOLVE
ESEL,S,MAT,,1 $ ESEL,R,CENT,Z,(0.0+0.0007)/2 $ BFE,ALL,HGEN,1,700.0/4.375000000000001e-07 $ ALLSEL
TIME,3.275173578 $ KBC,1 $ AUTOTS,OFF $ DELTIM,0.0005739412499999874 $ SOLVE
ESEL,S,MAT,,1 $ ESEL,R,CENT,Z,(0.0+0.0007)/2 $ BFE,ALL,HGEN,1,84.0/4.375000000000001e-07 $ ALLSEL
TIME,3.275176228 $ KBC,1 $ AUTOTS,OFF $ DELTIM,1.25e-05 $ SOLVE
ESEL,S,MAT,,1 $ ESEL,R,CENT,Z,(0.0+0.0007)/2 $ BFE,ALL,HGEN,1,280.0/4.375000000000001e-07 $ ALLSEL
TIME,3.275298161 $ KBC,1 $ AUTOTS,OFF $ DELTIM,1.5241624999995373e-05 $ SOLVE
ESEL,S,MAT,,1 $ ESEL,R,CENT,Z,(0.0+0.0007)/2 $ BFE,ALL,HGEN,1,140.0/4.375000000000001e-07 $ ALLSEL
TIME,3.275449485 $ KBC,1 $ AUTOTS,OFF $ DELTIM,1.89155000000496e-05 $ SOLVE
ESEL,S,MAT,,1 $ ESEL,R,CENT,Z,(0.0+0.0007)/2 $ BFE,ALL,HGEN,1,700.0/4.375000000000001e-07 $ ALLSEL
TIME,3.300065417 $ KBC,1 $ AUTOTS,OFF $ DELTIM,0.001 $ SOLVE
ESEL,S,MAT,,1 $ ESEL,R,CENT,Z,(0.0+0.0007)/2 $ BFE,ALL,HGEN,1,84.0/4.375000000000001e-07 $ ALLSEL
TIME,3.421380873 $ KBC,1 $ AUTOTS,OFF $ DELTIM,0.001 $ SOLVE
ESEL,S,MAT,,1 $ ESEL,R,CENT,Z,(0.0+0.0007)/2 $ BFE,ALL,HGEN,1,84.0/4.375000000000001e-07 $ ALLSEL
TIME,3.488024085 $ KBC,1 $ AUTOTS,OFF $ DELTIM,0.001 $ SOLVE
ESEL,S,MAT,,1 $ ESEL,R,CENT,Z,(0.0+0.0007)/2 $ BFE,ALL,HGEN,1,700.0/4.375000000000001e-07 $ ALLSEL
TIME,3.500332051 $ KBC,1 $ AUTOTS,OFF $ DELTIM,0.001 $ SOLVE
ESEL,S,MAT,,1 $ ESEL,R,CENT,Z,(0.0+0.0007)/2 $ BFE,ALL,HGEN,1,140.0/4.375000000000001e-07 $ ALLSEL
TIME,3.500408528 $ KBC,1 $ AUTOTS,OFF $ DELTIM,1.25e-05 $ SOLVE
ESEL,S,MAT,,1 $ ESEL,R,CENT,Z,(0.0+0.0007)/2 $ BFE,ALL,HGEN,1,280.0/4.375000000000001e-07 $ ALLSEL
TIME,3.500462128 $ KBC,1 $ AUTOTS,OFF $ DELTIM,1.25e-05 $ SOLVE
ESEL,S,MAT,,1 $ ESEL,R,CENT,Z,(0.0+0.0007)/2 $ BFE,ALL,HGEN,1,280.0/4.375000000000001e-07 $ ALLSEL
TIME,3.502557197 $ KBC,1 $ AUTOTS,OFF $ DELTIM,0.000261883624999959 $ SOLVE
ESEL,S,MAT,,1 $ ESEL,R,CENT,Z,(0.0+0.0007)/2 $ BFE,ALL,HGEN,1,700.0/4.375000000000001e-07 $ ALLSEL
TIME,3.509314967 $ KBC,1 $ AUTOTS,OFF $ DELTIM,0.0008447212500000134 $ SOLVE
ESEL,S,MAT,,1 $ ESEL,R,CENT,Z,(0.0+0.0007)/2 $ BFE,ALL,HGEN,1,84.0/4.375000000000001e-07 $ ALLSEL
TIME,3.510158668 $ KBC,1 $ AUTOTS,OFF $ DELTIM,0.00010546262499999681 $ SOLVE
ESEL,S,MAT,,1 $ ESEL,R,CENT,Z,(0.0+0.0007)/2 $ BFE,ALL,HGEN,1,140.0/4.375000000000001e-07 $ ALLSEL
TIME,3.510235146 $ KBC,1 $ AUTOTS,OFF $ DELTIM,1.25e-05 $ SOLVE
ESEL,S,MAT,,1 $ ESEL,R,CENT,Z,(0.0+0.0007)/2 $ BFE,ALL,HGEN,1,700.0/4.375000000000001e-07 $ ALLSEL
TIME,3.518699527 $ KBC,1 $ AUTOTS,OFF $ DELTIM,0.001 $ SOLVE
ESEL,S,MAT,,1 $ ESEL,R,CENT,Z,(0.0+0.0007)/2 $ BFE,ALL,HGEN,1,700.0/4.375000000000001e-07 $ ALLSEL
TIME,3.531007493 $ KBC,1 $ AUTOTS,OFF $ DELTIM,0.001 $ SOLVE
ESEL,S,MAT,,1 $ ESEL,R,CENT,Z,(0.0+0.0007)/2 $ BFE,ALL,HGEN,1,140.0/4.375000000000001e-07 $ ALLSEL
TIME,3.531235296 $ KBC,1 $ AUTOTS,OFF $ DELTIM,2.84753750000033e-05 $ SOLVE
ESEL,S,MAT,,1 $ ESEL,R,CENT,Z,(0.0+0.0007)/2 $ BFE,ALL,HGEN,1,280.0/4.375000000000001e-07 $ ALLSEL
TIME,3.531302509 $ KBC,1 $ AUTOTS,OFF $ DELTIM,1.25e-05 $ SOLVE
ESEL,S,MAT,,1 $ ESEL,R,CENT,Z,(0.0+0.0007)/2 $ BFE,ALL,HGEN,1,84.0/4.375000000000001e-07 $ ALLSEL
TIME,3.531304191 $ KBC,1 $ AUTOTS,OFF $ DELTIM,1.25e-05 $ SOLVE
ESEL,S,MAT,,1 $ ESEL,R,CENT,Z,(0.0+0.0007)/2 $ BFE,ALL,HGEN,1,280.0/4.375000000000001e-07 $ ALLSEL
TIME,3.533480344 $ KBC,1 $ AUTOTS,OFF $ DELTIM,0.00027201912500002257 $ SOLVE
ESEL,S,MAT,,1 $ ESEL,R,CENT,Z,(0.0+0.0007)/2 $ BFE,ALL,HGEN,1,700.0/4.375000000000001e-07 $ ALLSEL
TIME,3.544829644 $ KBC,1 $ AUTOTS,OFF $ DELTIM,0.001 $ SOLVE
ESEL,S,MAT,,1 $ ESEL,R,CENT,Z,(0.0+0.0007)/2 $ BFE,ALL,HGEN,1,140.0/4.375000000000001e-07 $ ALLSEL
TIME,3.544904597 $ KBC,1 $ AUTOTS,OFF $ DELTIM,1.25e-05 $ SOLVE
ESEL,S,MAT,,1 $ ESEL,R,CENT,Z,(0.0+0.0007)/2 $ BFE,ALL,HGEN,1,140.0/4.375000000000001e-07 $ ALLSEL
TIME,3.544906122 $ KBC,1 $ AUTOTS,OFF $ DELTIM,1.25e-05 $ SOLVE
ESEL,S,MAT,,1 $ ESEL,R,CENT,Z,(0.0+0.0007)/2 $ BFE,ALL,HGEN,1,700.0/4.375000000000001e-07 $ ALLSEL
TIME,3.54769858 $ KBC,1 $ AUTOTS,OFF $ DELTIM,0.00034905725000000665 $ SOLVE
ESEL,S,MAT,,1 $ ESEL,R,CENT,Z,(0.0+0.0007)/2 $ BFE,ALL,HGEN,1,280.0/4.375000000000001e-07 $ ALLSEL
TIME,3.547820513 $ KBC,1 $ AUTOTS,OFF $ DELTIM,1.5241624999995373e-05 $ SOLVE
ESEL,S,MAT,,1 $ ESEL,R,CENT,Z,(0.0+0.0007)/2 $ BFE,ALL,HGEN,1,700.0/4.375000000000001e-07 $ ALLSEL
TIME,3.553492436 $ KBC,1 $ AUTOTS,OFF $ DELTIM,0.000708990374999996 $ SOLVE
ESEL,S,MAT,,1 $ ESEL,R,CENT,Z,(0.0+0.0007)/2 $ BFE,ALL,HGEN,1,140.0/4.375000000000001e-07 $ ALLSEL
TIME,3.553495067 $ KBC,1 $ AUTOTS,OFF $ DELTIM,1.25e-05 $ SOLVE
ESEL,S,MAT,,1 $ ESEL,R,CENT,Z,(0.0+0.0007)/2 $ BFE,ALL,HGEN,1,700.0/4.375000000000001e-07 $ ALLSEL
TIME,3.565803033 $ KBC,1 $ AUTOTS,OFF $ DELTIM,0.001 $ SOLVE
ESEL,S,MAT,,1 $ ESEL,R,CENT,Z,(0.0+0.0007)/2 $ BFE,ALL,HGEN,1,140.0/4.375000000000001e-07 $ ALLSEL
TIME,3.566178006 $ KBC,1 $ AUTOTS,OFF $ DELTIM,4.687162500000008e-05 $ SOLVE
ESEL,S,MAT,,1 $ ESEL,R,CENT,Z,(0.0+0.0007)/2 $ BFE,ALL,HGEN,1,700.0/4.375000000000001e-07 $ ALLSEL
TIME,3.590793938 $ KBC,1 $ AUTOTS,OFF $ DELTIM,0.001 $ SOLVE
ESEL,S,MAT,,1 $ ESEL,R,CENT,Z,(0.0+0.0007)/2 $ BFE,ALL,HGEN,1,140.0/4.375000000000001e-07 $ ALLSEL
TIME,3.590795461 $ KBC,1 $ AUTOTS,OFF $ DELTIM,1.25e-05 $ SOLVE
ESEL,S,MAT,,1 $ ESEL,R,CENT,Z,(0.0+0.0007)/2 $ BFE,ALL,HGEN,1,280.0/4.375000000000001e-07 $ ALLSEL
TIME,3.590862674 $ KBC,1 $ AUTOTS,OFF $ DELTIM,1.25e-05 $ SOLVE
ESEL,S,MAT,,1 $ ESEL,R,CENT,Z,(0.0+0.0007)/2 $ BFE,ALL,HGEN,1,84.0/4.375000000000001e-07 $ ALLSEL
TIME,3.590864376 $ KBC,1 $ AUTOTS,OFF $ DELTIM,1.25e-05 $ SOLVE
ESEL,S,MAT,,1 $ ESEL,R,CENT,Z,(0.0+0.0007)/2 $ BFE,ALL,HGEN,1,280.0/4.375000000000001e-07 $ ALLSEL
TIME,3.593040529 $ KBC,1 $ AUTOTS,OFF $ DELTIM,0.00027201912500002257 $ SOLVE
ESEL,S,MAT,,1 $ ESEL,R,CENT,Z,(0.0+0.0007)/2 $ BFE,ALL,HGEN,1,700.0/4.375000000000001e-07 $ ALLSEL
TIME,3.604389829 $ KBC,1 $ AUTOTS,OFF $ DELTIM,0.001 $ SOLVE
ESEL,S,MAT,,1 $ ESEL,R,CENT,Z,(0.0+0.0007)/2 $ BFE,ALL,HGEN,1,140.0/4.375000000000001e-07 $ ALLSEL
TIME,3.604464782 $ KBC,1 $ AUTOTS,OFF $ DELTIM,1.25e-05 $ SOLVE
ESEL,S,MAT,,1 $ ESEL,R,CENT,Z,(0.0+0.0007)/2 $ BFE,ALL,HGEN,1,140.0/4.375000000000001e-07 $ ALLSEL
TIME,3.604466307 $ KBC,1 $ AUTOTS,OFF $ DELTIM,1.25e-05 $ SOLVE
ESEL,S,MAT,,1 $ ESEL,R,CENT,Z,(0.0+0.0007)/2 $ BFE,ALL,HGEN,1,700.0/4.375000000000001e-07 $ ALLSEL
TIME,3.607258765 $ KBC,1 $ AUTOTS,OFF $ DELTIM,0.00034905725000000665 $ SOLVE
ESEL,S,MAT,,1 $ ESEL,R,CENT,Z,(0.0+0.0007)/2 $ BFE,ALL,HGEN,1,280.0/4.375000000000001e-07 $ ALLSEL
TIME,3.607380698 $ KBC,1 $ AUTOTS,OFF $ DELTIM,1.5241624999995373e-05 $ SOLVE
ESEL,S,MAT,,1 $ ESEL,R,CENT,Z,(0.0+0.0007)/2 $ BFE,ALL,HGEN,1,700.0/4.375000000000001e-07 $ ALLSEL
TIME,3.613052621 $ KBC,1 $ AUTOTS,OFF $ DELTIM,0.000708990374999996 $ SOLVE
ESEL,S,MAT,,1 $ ESEL,R,CENT,Z,(0.0+0.0007)/2 $ BFE,ALL,HGEN,1,140.0/4.375000000000001e-07 $ ALLSEL
TIME,3.613053936 $ KBC,1 $ AUTOTS,OFF $ DELTIM,1.25e-05 $ SOLVE
ESEL,S,MAT,,1 $ ESEL,R,CENT,Z,(0.0+0.0007)/2 $ BFE,ALL,HGEN,1,700.0/4.375000000000001e-07 $ ALLSEL
TIME,3.625361902 $ KBC,1 $ AUTOTS,OFF $ DELTIM,0.001 $ SOLVE
ESEL,S,MAT,,1 $ ESEL,R,CENT,Z,(0.0+0.0007)/2 $ BFE,ALL,HGEN,1,140.0/4.375000000000001e-07 $ ALLSEL
TIME,3.625738191 $ KBC,1 $ AUTOTS,OFF $ DELTIM,4.703612500001064e-05 $ SOLVE
ESEL,S,MAT,,1 $ ESEL,R,CENT,Z,(0.0+0.0007)/2 $ BFE,ALL,HGEN,1,700.0/4.375000000000001e-07 $ ALLSEL
TIME,3.650354123 $ KBC,1 $ AUTOTS,OFF $ DELTIM,0.001 $ SOLVE
ESEL,S,MAT,,1 $ ESEL,R,CENT,Z,(0.0+0.0007)/2 $ BFE,ALL,HGEN,1,140.0/4.375000000000001e-07 $ ALLSEL
TIME,3.650355646 $ KBC,1 $ AUTOTS,OFF $ DELTIM,1.25e-05 $ SOLVE
ESEL,S,MAT,,1 $ ESEL,R,CENT,Z,(0.0+0.0007)/2 $ BFE,ALL,HGEN,1,280.0/4.375000000000001e-07 $ ALLSEL
TIME,3.650412622 $ KBC,1 $ AUTOTS,OFF $ DELTIM,1.25e-05 $ SOLVE
ESEL,S,MAT,,1 $ ESEL,R,CENT,Z,(0.0+0.0007)/2 $ BFE,ALL,HGEN,1,280.0/4.375000000000001e-07 $ ALLSEL
TIME,3.652599013 $ KBC,1 $ AUTOTS,OFF $ DELTIM,0.0002732988749999943 $ SOLVE
ESEL,S,MAT,,1 $ ESEL,R,CENT,Z,(0.0+0.0007)/2 $ BFE,ALL,HGEN,1,700.0/4.375000000000001e-07 $ ALLSEL
TIME,3.663948312 $ KBC,1 $ AUTOTS,OFF $ DELTIM,0.001 $ SOLVE
ESEL,S,MAT,,1 $ ESEL,R,CENT,Z,(0.0+0.0007)/2 $ BFE,ALL,HGEN,1,140.0/4.375000000000001e-07 $ ALLSEL
TIME,3.664023266 $ KBC,1 $ AUTOTS,OFF $ DELTIM,1.25e-05 $ SOLVE
ESEL,S,MAT,,1 $ ESEL,R,CENT,Z,(0.0+0.0007)/2 $ BFE,ALL,HGEN,1,140.0/4.375000000000001e-07 $ ALLSEL
TIME,3.66402479 $ KBC,1 $ AUTOTS,OFF $ DELTIM,1.25e-05 $ SOLVE
ESEL,S,MAT,,1 $ ESEL,R,CENT,Z,(0.0+0.0007)/2 $ BFE,ALL,HGEN,1,700.0/4.375000000000001e-07 $ ALLSEL
TIME,3.666817248 $ KBC,1 $ AUTOTS,OFF $ DELTIM,0.00034905725000000665 $ SOLVE
ESEL,S,MAT,,1 $ ESEL,R,CENT,Z,(0.0+0.0007)/2 $ BFE,ALL,HGEN,1,280.0/4.375000000000001e-07 $ ALLSEL
TIME,3.666939181 $ KBC,1 $ AUTOTS,OFF $ DELTIM,1.5241624999995373e-05 $ SOLVE
ESEL,S,MAT,,1 $ ESEL,R,CENT,Z,(0.0+0.0007)/2 $ BFE,ALL,HGEN,1,700.0/4.375000000000001e-07 $ ALLSEL
TIME,3.672611104 $ KBC,1 $ AUTOTS,OFF $ DELTIM,0.000708990374999996 $ SOLVE
ESEL,S,MAT,,1 $ ESEL,R,CENT,Z,(0.0+0.0007)/2 $ BFE,ALL,HGEN,1,140.0/4.375000000000001e-07 $ ALLSEL
TIME,3.672913754 $ KBC,1 $ AUTOTS,OFF $ DELTIM,3.7831250000008865e-05 $ SOLVE
ESEL,S,MAT,,1 $ ESEL,R,CENT,Z,(0.0+0.0007)/2 $ BFE,ALL,HGEN,1,700.0/4.375000000000001e-07 $ ALLSEL
TIME,3.697529686 $ KBC,1 $ AUTOTS,OFF $ DELTIM,0.001 $ SOLVE
ESEL,S,MAT,,1 $ ESEL,R,CENT,Z,(0.0+0.0007)/2 $ BFE,ALL,HGEN,1,280.0/4.375000000000001e-07 $ ALLSEL
TIME,3.697533062 $ KBC,1 $ AUTOTS,OFF $ DELTIM,1.25e-05 $ SOLVE
ESEL,S,MAT,,1 $ ESEL,R,CENT,Z,(0.0+0.0007)/2 $ BFE,ALL,HGEN,1,84.0/4.375000000000001e-07 $ ALLSEL
TIME,3.698163335 $ KBC,1 $ AUTOTS,OFF $ DELTIM,7.878412499995324e-05 $ SOLVE
ESEL,S,MAT,,1 $ ESEL,R,CENT,Z,(0.0+0.0007)/2 $ BFE,ALL,HGEN,1,280.0/4.375000000000001e-07 $ ALLSEL
TIME,3.698254657 $ KBC,1 $ AUTOTS,OFF $ DELTIM,1.25e-05 $ SOLVE
ESEL,S,MAT,,1 $ ESEL,R,CENT,Z,(0.0+0.0007)/2 $ BFE,ALL,HGEN,1,700.0/4.375000000000001e-07 $ ALLSEL
TIME,3.702846187 $ KBC,1 $ AUTOTS,OFF $ DELTIM,0.0005739412499999874 $ SOLVE
ESEL,S,MAT,,1 $ ESEL,R,CENT,Z,(0.0+0.0007)/2 $ BFE,ALL,HGEN,1,84.0/4.375000000000001e-07 $ ALLSEL
TIME,3.702848837 $ KBC,1 $ AUTOTS,OFF $ DELTIM,1.25e-05 $ SOLVE
ESEL,S,MAT,,1 $ ESEL,R,CENT,Z,(0.0+0.0007)/2 $ BFE,ALL,HGEN,1,280.0/4.375000000000001e-07 $ ALLSEL
TIME,3.70297077 $ KBC,1 $ AUTOTS,OFF $ DELTIM,1.5241624999995373e-05 $ SOLVE
ESEL,S,MAT,,1 $ ESEL,R,CENT,Z,(0.0+0.0007)/2 $ BFE,ALL,HGEN,1,140.0/4.375000000000001e-07 $ ALLSEL
TIME,3.703122094 $ KBC,1 $ AUTOTS,OFF $ DELTIM,1.891549999999409e-05 $ SOLVE
ESEL,S,MAT,,1 $ ESEL,R,CENT,Z,(0.0+0.0007)/2 $ BFE,ALL,HGEN,1,700.0/4.375000000000001e-07 $ ALLSEL
TIME,3.727738026 $ KBC,1 $ AUTOTS,OFF $ DELTIM,0.001 $ SOLVE
ESEL,S,MAT,,1 $ ESEL,R,CENT,Z,(0.0+0.0007)/2 $ BFE,ALL,HGEN,1,84.0/4.375000000000001e-07 $ ALLSEL
TIME,3.849053482 $ KBC,1 $ AUTOTS,OFF $ DELTIM,0.001 $ SOLVE
ESEL,S,MAT,,1 $ ESEL,R,CENT,Z,(0.0+0.0007)/2 $ BFE,ALL,HGEN,1,84.0/4.375000000000001e-07 $ ALLSEL
TIME,3.915696694 $ KBC,1 $ AUTOTS,OFF $ DELTIM,0.001 $ SOLVE
ESEL,S,MAT,,1 $ ESEL,R,CENT,Z,(0.0+0.0007)/2 $ BFE,ALL,HGEN,1,700.0/4.375000000000001e-07 $ ALLSEL
TIME,3.92800466 $ KBC,1 $ AUTOTS,OFF $ DELTIM,0.001 $ SOLVE
ESEL,S,MAT,,1 $ ESEL,R,CENT,Z,(0.0+0.0007)/2 $ BFE,ALL,HGEN,1,140.0/4.375000000000001e-07 $ ALLSEL
TIME,3.928081137 $ KBC,1 $ AUTOTS,OFF $ DELTIM,1.25e-05 $ SOLVE
ESEL,S,MAT,,1 $ ESEL,R,CENT,Z,(0.0+0.0007)/2 $ BFE,ALL,HGEN,1,280.0/4.375000000000001e-07 $ ALLSEL
TIME,3.928134737 $ KBC,1 $ AUTOTS,OFF $ DELTIM,1.25e-05 $ SOLVE
ESEL,S,MAT,,1 $ ESEL,R,CENT,Z,(0.0+0.0007)/2 $ BFE,ALL,HGEN,1,280.0/4.375000000000001e-07 $ ALLSEL
TIME,3.930229806 $ KBC,1 $ AUTOTS,OFF $ DELTIM,0.000261883624999959 $ SOLVE
ESEL,S,MAT,,1 $ ESEL,R,CENT,Z,(0.0+0.0007)/2 $ BFE,ALL,HGEN,1,700.0/4.375000000000001e-07 $ ALLSEL
TIME,3.936987576 $ KBC,1 $ AUTOTS,OFF $ DELTIM,0.0008447212500000134 $ SOLVE
ESEL,S,MAT,,1 $ ESEL,R,CENT,Z,(0.0+0.0007)/2 $ BFE,ALL,HGEN,1,84.0/4.375000000000001e-07 $ ALLSEL
TIME,3.937831277 $ KBC,1 $ AUTOTS,OFF $ DELTIM,0.00010546262499999681 $ SOLVE
ESEL,S,MAT,,1 $ ESEL,R,CENT,Z,(0.0+0.0007)/2 $ BFE,ALL,HGEN,1,140.0/4.375000000000001e-07 $ ALLSEL
TIME,3.937907755 $ KBC,1 $ AUTOTS,OFF $ DELTIM,1.25e-05 $ SOLVE
ESEL,S,MAT,,1 $ ESEL,R,CENT,Z,(0.0+0.0007)/2 $ BFE,ALL,HGEN,1,700.0/4.375000000000001e-07 $ ALLSEL
TIME,3.946372136 $ KBC,1 $ AUTOTS,OFF $ DELTIM,0.001 $ SOLVE
ESEL,S,MAT,,1 $ ESEL,R,CENT,Z,(0.0+0.0007)/2 $ BFE,ALL,HGEN,1,700.0/4.375000000000001e-07 $ ALLSEL
TIME,3.958680102 $ KBC,1 $ AUTOTS,OFF $ DELTIM,0.001 $ SOLVE
ESEL,S,MAT,,1 $ ESEL,R,CENT,Z,(0.0+0.0007)/2 $ BFE,ALL,HGEN,1,140.0/4.375000000000001e-07 $ ALLSEL
TIME,3.958907905 $ KBC,1 $ AUTOTS,OFF $ DELTIM,2.847537499994779e-05 $ SOLVE
ESEL,S,MAT,,1 $ ESEL,R,CENT,Z,(0.0+0.0007)/2 $ BFE,ALL,HGEN,1,280.0/4.375000000000001e-07 $ ALLSEL
TIME,3.958975118 $ KBC,1 $ AUTOTS,OFF $ DELTIM,1.25e-05 $ SOLVE
ESEL,S,MAT,,1 $ ESEL,R,CENT,Z,(0.0+0.0007)/2 $ BFE,ALL,HGEN,1,84.0/4.375000000000001e-07 $ ALLSEL
TIME,3.9589768 $ KBC,1 $ AUTOTS,OFF $ DELTIM,1.25e-05 $ SOLVE
ESEL,S,MAT,,1 $ ESEL,R,CENT,Z,(0.0+0.0007)/2 $ BFE,ALL,HGEN,1,280.0/4.375000000000001e-07 $ ALLSEL
TIME,3.961152954 $ KBC,1 $ AUTOTS,OFF $ DELTIM,0.0002720192500000329 $ SOLVE
ESEL,S,MAT,,1 $ ESEL,R,CENT,Z,(0.0+0.0007)/2 $ BFE,ALL,HGEN,1,700.0/4.375000000000001e-07 $ ALLSEL
TIME,3.972502253 $ KBC,1 $ AUTOTS,OFF $ DELTIM,0.001 $ SOLVE
ESEL,S,MAT,,1 $ ESEL,R,CENT,Z,(0.0+0.0007)/2 $ BFE,ALL,HGEN,1,140.0/4.375000000000001e-07 $ ALLSEL
TIME,3.972577207 $ KBC,1 $ AUTOTS,OFF $ DELTIM,1.25e-05 $ SOLVE
ESEL,S,MAT,,1 $ ESEL,R,CENT,Z,(0.0+0.0007)/2 $ BFE,ALL,HGEN,1,140.0/4.375000000000001e-07 $ ALLSEL
TIME,3.972578731 $ KBC,1 $ AUTOTS,OFF $ DELTIM,1.25e-05 $ SOLVE
ESEL,S,MAT,,1 $ ESEL,R,CENT,Z,(0.0+0.0007)/2 $ BFE,ALL,HGEN,1,700.0/4.375000000000001e-07 $ ALLSEL
TIME,3.975371189 $ KBC,1 $ AUTOTS,OFF $ DELTIM,0.00034905725000000665 $ SOLVE
ESEL,S,MAT,,1 $ ESEL,R,CENT,Z,(0.0+0.0007)/2 $ BFE,ALL,HGEN,1,280.0/4.375000000000001e-07 $ ALLSEL
TIME,3.975493122 $ KBC,1 $ AUTOTS,OFF $ DELTIM,1.5241624999995373e-05 $ SOLVE
ESEL,S,MAT,,1 $ ESEL,R,CENT,Z,(0.0+0.0007)/2 $ BFE,ALL,HGEN,1,700.0/4.375000000000001e-07 $ ALLSEL
TIME,3.981165045 $ KBC,1 $ AUTOTS,OFF $ DELTIM,0.000708990374999996 $ SOLVE
ESEL,S,MAT,,1 $ ESEL,R,CENT,Z,(0.0+0.0007)/2 $ BFE,ALL,HGEN,1,140.0/4.375000000000001e-07 $ ALLSEL
TIME,3.981167676 $ KBC,1 $ AUTOTS,OFF $ DELTIM,1.25e-05 $ SOLVE
ESEL,S,MAT,,1 $ ESEL,R,CENT,Z,(0.0+0.0007)/2 $ BFE,ALL,HGEN,1,700.0/4.375000000000001e-07 $ ALLSEL
TIME,3.993475642 $ KBC,1 $ AUTOTS,OFF $ DELTIM,0.001 $ SOLVE
ESEL,S,MAT,,1 $ ESEL,R,CENT,Z,(0.0+0.0007)/2 $ BFE,ALL,HGEN,1,140.0/4.375000000000001e-07 $ ALLSEL
TIME,3.993850615 $ KBC,1 $ AUTOTS,OFF $ DELTIM,4.687162500000008e-05 $ SOLVE
ESEL,S,MAT,,1 $ ESEL,R,CENT,Z,(0.0+0.0007)/2 $ BFE,ALL,HGEN,1,700.0/4.375000000000001e-07 $ ALLSEL
TIME,4.018466547 $ KBC,1 $ AUTOTS,OFF $ DELTIM,0.001 $ SOLVE
ESEL,S,MAT,,1 $ ESEL,R,CENT,Z,(0.0+0.0007)/2 $ BFE,ALL,HGEN,1,140.0/4.375000000000001e-07 $ ALLSEL
TIME,4.01846807 $ KBC,1 $ AUTOTS,OFF $ DELTIM,1.25e-05 $ SOLVE
ESEL,S,MAT,,1 $ ESEL,R,CENT,Z,(0.0+0.0007)/2 $ BFE,ALL,HGEN,1,280.0/4.375000000000001e-07 $ ALLSEL
TIME,4.018535283 $ KBC,1 $ AUTOTS,OFF $ DELTIM,1.25e-05 $ SOLVE
ESEL,S,MAT,,1 $ ESEL,R,CENT,Z,(0.0+0.0007)/2 $ BFE,ALL,HGEN,1,84.0/4.375000000000001e-07 $ ALLSEL
TIME,4.018536985 $ KBC,1 $ AUTOTS,OFF $ DELTIM,1.25e-05 $ SOLVE
ESEL,S,MAT,,1 $ ESEL,R,CENT,Z,(0.0+0.0007)/2 $ BFE,ALL,HGEN,1,280.0/4.375000000000001e-07 $ ALLSEL
TIME,4.020713139 $ KBC,1 $ AUTOTS,OFF $ DELTIM,0.0002720192499999774 $ SOLVE
ESEL,S,MAT,,1 $ ESEL,R,CENT,Z,(0.0+0.0007)/2 $ BFE,ALL,HGEN,1,700.0/4.375000000000001e-07 $ ALLSEL
TIME,4.032062438 $ KBC,1 $ AUTOTS,OFF $ DELTIM,0.001 $ SOLVE
ESEL,S,MAT,,1 $ ESEL,R,CENT,Z,(0.0+0.0007)/2 $ BFE,ALL,HGEN,1,140.0/4.375000000000001e-07 $ ALLSEL
TIME,4.032137392 $ KBC,1 $ AUTOTS,OFF $ DELTIM,1.25e-05 $ SOLVE
ESEL,S,MAT,,1 $ ESEL,R,CENT,Z,(0.0+0.0007)/2 $ BFE,ALL,HGEN,1,140.0/4.375000000000001e-07 $ ALLSEL
TIME,4.032138916 $ KBC,1 $ AUTOTS,OFF $ DELTIM,1.25e-05 $ SOLVE
ESEL,S,MAT,,1 $ ESEL,R,CENT,Z,(0.0+0.0007)/2 $ BFE,ALL,HGEN,1,700.0/4.375000000000001e-07 $ ALLSEL
TIME,4.034931374 $ KBC,1 $ AUTOTS,OFF $ DELTIM,0.00034905725000000665 $ SOLVE
ESEL,S,MAT,,1 $ ESEL,R,CENT,Z,(0.0+0.0007)/2 $ BFE,ALL,HGEN,1,280.0/4.375000000000001e-07 $ ALLSEL
TIME,4.035053307 $ KBC,1 $ AUTOTS,OFF $ DELTIM,1.5241624999995373e-05 $ SOLVE
ESEL,S,MAT,,1 $ ESEL,R,CENT,Z,(0.0+0.0007)/2 $ BFE,ALL,HGEN,1,700.0/4.375000000000001e-07 $ ALLSEL
TIME,4.04072523 $ KBC,1 $ AUTOTS,OFF $ DELTIM,0.0007089903749999404 $ SOLVE
ESEL,S,MAT,,1 $ ESEL,R,CENT,Z,(0.0+0.0007)/2 $ BFE,ALL,HGEN,1,140.0/4.375000000000001e-07 $ ALLSEL
TIME,4.040726545 $ KBC,1 $ AUTOTS,OFF $ DELTIM,1.25e-05 $ SOLVE
ESEL,S,MAT,,1 $ ESEL,R,CENT,Z,(0.0+0.0007)/2 $ BFE,ALL,HGEN,1,700.0/4.375000000000001e-07 $ ALLSEL
TIME,4.053034511 $ KBC,1 $ AUTOTS,OFF $ DELTIM,0.001 $ SOLVE
ESEL,S,MAT,,1 $ ESEL,R,CENT,Z,(0.0+0.0007)/2 $ BFE,ALL,HGEN,1,140.0/4.375000000000001e-07 $ ALLSEL
TIME,4.0534108 $ KBC,1 $ AUTOTS,OFF $ DELTIM,4.703612500001064e-05 $ SOLVE
ESEL,S,MAT,,1 $ ESEL,R,CENT,Z,(0.0+0.0007)/2 $ BFE,ALL,HGEN,1,700.0/4.375000000000001e-07 $ ALLSEL
TIME,4.078026732 $ KBC,1 $ AUTOTS,OFF $ DELTIM,0.001 $ SOLVE
ESEL,S,MAT,,1 $ ESEL,R,CENT,Z,(0.0+0.0007)/2 $ BFE,ALL,HGEN,1,140.0/4.375000000000001e-07 $ ALLSEL
TIME,4.078028255 $ KBC,1 $ AUTOTS,OFF $ DELTIM,1.25e-05 $ SOLVE
ESEL,S,MAT,,1 $ ESEL,R,CENT,Z,(0.0+0.0007)/2 $ BFE,ALL,HGEN,1,280.0/4.375000000000001e-07 $ ALLSEL
TIME,4.078085231 $ KBC,1 $ AUTOTS,OFF $ DELTIM,1.25e-05 $ SOLVE
ESEL,S,MAT,,1 $ ESEL,R,CENT,Z,(0.0+0.0007)/2 $ BFE,ALL,HGEN,1,280.0/4.375000000000001e-07 $ ALLSEL
TIME,4.080271622 $ KBC,1 $ AUTOTS,OFF $ DELTIM,0.00027329887499993877 $ SOLVE
ESEL,S,MAT,,1 $ ESEL,R,CENT,Z,(0.0+0.0007)/2 $ BFE,ALL,HGEN,1,700.0/4.375000000000001e-07 $ ALLSEL
TIME,4.091620921 $ KBC,1 $ AUTOTS,OFF $ DELTIM,0.001 $ SOLVE
ESEL,S,MAT,,1 $ ESEL,R,CENT,Z,(0.0+0.0007)/2 $ BFE,ALL,HGEN,1,140.0/4.375000000000001e-07 $ ALLSEL
TIME,4.091695875 $ KBC,1 $ AUTOTS,OFF $ DELTIM,1.25e-05 $ SOLVE
ESEL,S,MAT,,1 $ ESEL,R,CENT,Z,(0.0+0.0007)/2 $ BFE,ALL,HGEN,1,140.0/4.375000000000001e-07 $ ALLSEL
TIME,4.0916974 $ KBC,1 $ AUTOTS,OFF $ DELTIM,1.25e-05 $ SOLVE
ESEL,S,MAT,,1 $ ESEL,R,CENT,Z,(0.0+0.0007)/2 $ BFE,ALL,HGEN,1,700.0/4.375000000000001e-07 $ ALLSEL
TIME,4.094489857 $ KBC,1 $ AUTOTS,OFF $ DELTIM,0.0003490571249999963 $ SOLVE
ESEL,S,MAT,,1 $ ESEL,R,CENT,Z,(0.0+0.0007)/2 $ BFE,ALL,HGEN,1,280.0/4.375000000000001e-07 $ ALLSEL
TIME,4.09461179 $ KBC,1 $ AUTOTS,OFF $ DELTIM,1.5241624999995373e-05 $ SOLVE
ESEL,S,MAT,,1 $ ESEL,R,CENT,Z,(0.0+0.0007)/2 $ BFE,ALL,HGEN,1,700.0/4.375000000000001e-07 $ ALLSEL
TIME,4.100283713 $ KBC,1 $ AUTOTS,OFF $ DELTIM,0.0007089903749999404 $ SOLVE
ESEL,S,MAT,,1 $ ESEL,R,CENT,Z,(0.0+0.0007)/2 $ BFE,ALL,HGEN,1,140.0/4.375000000000001e-07 $ ALLSEL
TIME,4.100586364 $ KBC,1 $ AUTOTS,OFF $ DELTIM,3.783137500001921e-05 $ SOLVE
ESEL,S,MAT,,1 $ ESEL,R,CENT,Z,(0.0+0.0007)/2 $ BFE,ALL,HGEN,1,700.0/4.375000000000001e-07 $ ALLSEL
TIME,4.125202296 $ KBC,1 $ AUTOTS,OFF $ DELTIM,0.001 $ SOLVE
ESEL,S,MAT,,1 $ ESEL,R,CENT,Z,(0.0+0.0007)/2 $ BFE,ALL,HGEN,1,280.0/4.375000000000001e-07 $ ALLSEL
TIME,4.125205672 $ KBC,1 $ AUTOTS,OFF $ DELTIM,1.25e-05 $ SOLVE
ESEL,S,MAT,,1 $ ESEL,R,CENT,Z,(0.0+0.0007)/2 $ BFE,ALL,HGEN,1,84.0/4.375000000000001e-07 $ ALLSEL
TIME,4.125835945 $ KBC,1 $ AUTOTS,OFF $ DELTIM,7.878412500006426e-05 $ SOLVE
ESEL,S,MAT,,1 $ ESEL,R,CENT,Z,(0.0+0.0007)/2 $ BFE,ALL,HGEN,1,280.0/4.375000000000001e-07 $ ALLSEL
TIME,4.125927266 $ KBC,1 $ AUTOTS,OFF $ DELTIM,1.25e-05 $ SOLVE
ESEL,S,MAT,,1 $ ESEL,R,CENT,Z,(0.0+0.0007)/2 $ BFE,ALL,HGEN,1,700.0/4.375000000000001e-07 $ ALLSEL
TIME,4.130518796 $ KBC,1 $ AUTOTS,OFF $ DELTIM,0.0005739412499999874 $ SOLVE
ESEL,S,MAT,,1 $ ESEL,R,CENT,Z,(0.0+0.0007)/2 $ BFE,ALL,HGEN,1,84.0/4.375000000000001e-07 $ ALLSEL
TIME,4.130521446 $ KBC,1 $ AUTOTS,OFF $ DELTIM,1.25e-05 $ SOLVE
ESEL,S,MAT,,1 $ ESEL,R,CENT,Z,(0.0+0.0007)/2 $ BFE,ALL,HGEN,1,280.0/4.375000000000001e-07 $ ALLSEL
TIME,4.130643379 $ KBC,1 $ AUTOTS,OFF $ DELTIM,1.5241624999995373e-05 $ SOLVE
ESEL,S,MAT,,1 $ ESEL,R,CENT,Z,(0.0+0.0007)/2 $ BFE,ALL,HGEN,1,140.0/4.375000000000001e-07 $ ALLSEL
TIME,4.130794704 $ KBC,1 $ AUTOTS,OFF $ DELTIM,1.8915625000004432e-05 $ SOLVE
ESEL,S,MAT,,1 $ ESEL,R,CENT,Z,(0.0+0.0007)/2 $ BFE,ALL,HGEN,1,700.0/4.375000000000001e-07 $ ALLSEL
TIME,4.155410636 $ KBC,1 $ AUTOTS,OFF $ DELTIM,0.001 $ SOLVE
ESEL,S,MAT,,1 $ ESEL,R,CENT,Z,(0.0+0.0007)/2 $ BFE,ALL,HGEN,1,84.0/4.375000000000001e-07 $ ALLSEL
TIME,4.276726091 $ KBC,1 $ AUTOTS,OFF $ DELTIM,0.001 $ SOLVE
FINISH

/POST26
NUMVAR,200
NSOL,2,NMON,TEMP
/OUTPUT,llama_pic_transient_sim_i1800_hot_dt1ms,csv
PRVAR,2
/OUTPUT
FINISH
