/PREP7
! ===== ICCAD2026 OIO3D GPU/EIC/aPIC transient (Coenen et al. TCPMT 2026 params) =====
MP,KXX,1,150.0 $ MP,KYY,1,150.0 $ MP,KZZ,1,150.0 $ MP,DENS,1,2330 $ MP,C,1,700
MP,KXX,2,5.0 $ MP,KYY,2,5.0 $ MP,KZZ,2,5.0 $ MP,DENS,2,2500 $ MP,C,2,800
MP,KXX,3,80.0 $ MP,KYY,3,80.0 $ MP,KZZ,3,80.0 $ MP,DENS,3,2300 $ MP,C,3,700
MP,KXX,4,2.55 $ MP,KYY,4,2.55 $ MP,KZZ,4,2.55 $ MP,DENS,4,2500 $ MP,C,4,800
ET,1,SOLID70
ESIZE,0.025/20
BLOCK,0,0.025,0,0.025,0.0,0.0007 $ VSEL,S,LOC,Z,(0.0+0.0007)/2 $ VATT,1,,1 $ VMESH,ALL $ ALLSEL
BLOCK,0,0.025,0,0.025,0.0007,0.0007023999999999999 $ VSEL,S,LOC,Z,(0.0007+0.0007023999999999999)/2 $ VATT,2,,1 $ VMESH,ALL $ ALLSEL
BLOCK,0,0.025,0,0.025,0.0007023999999999999,0.0008024 $ VSEL,S,LOC,Z,(0.0007023999999999999+0.0008024)/2 $ VATT,1,,1 $ VMESH,ALL $ ALLSEL
BLOCK,0,0.025,0,0.025,0.0008024,0.0008047999999999999 $ VSEL,S,LOC,Z,(0.0008024+0.0008047999999999999)/2 $ VATT,2,,1 $ VMESH,ALL $ ALLSEL
BLOCK,0,0.025,0,0.025,0.0008047999999999999,0.0008548 $ VSEL,S,LOC,Z,(0.0008047999999999999+0.0008548)/2 $ VATT,3,,1 $ VMESH,ALL $ ALLSEL
BLOCK,0,0.025,0,0.025,0.0008548,0.0008571999999999999 $ VSEL,S,LOC,Z,(0.0008548+0.0008571999999999999)/2 $ VATT,4,,1 $ VMESH,ALL $ ALLSEL
BLOCK,0,0.025,0,0.025,0.0008571999999999999,0.0011572 $ VSEL,S,LOC,Z,(0.0008571999999999999+0.0011572)/2 $ VATT,1,,1 $ VMESH,ALL $ ALLSEL
ALLSEL $ NUMMRG,NODE,1e-9 $ NUMCMP,NODE
VOL_XPU=4.375000000000001e-07
ESEL,S,MAT,,1 $ ESEL,R,CENT,Z,(0.0007023999999999999+0.0008024)/2 $ BFE,ALL,HGEN,1,266.25/6.250000000000001e-08 $ ALLSEL
ESEL,S,MAT,,3 $ BFE,ALL,HGEN,1,70.625/3.1250000000000005e-08 $ ALLSEL
ASEL,S,LOC,Z,0.0 $ SFA,ALL,,CONV,70000.0,45.0 $ ALLSEL
ASEL,S,LOC,Z,0.0011572 $ SFA,ALL,,CONV,16000.0000,45.0 $ ALLSEL
NMON=NODE(0.025/2,0.025/2,(0.0008047999999999999+0.0008548)/2)
FINISH

/SOLU
ANTYPE,TRANS
TRNOPT,FULL
OUTRES,ALL,ALL
TIMINT,OFF
ESEL,S,MAT,,1 $ ESEL,R,CENT,Z,(0.0+0.0007)/2 $ BFE,ALL,HGEN,1,700.0/4.375000000000001e-07 $ ALLSEL
TIME,1e-3 $ KBC,1 $ SOLVE
TIMINT,ON
ESEL,S,MAT,,1 $ ESEL,R,CENT,Z,(0.0+0.0007)/2 $ BFE,ALL,HGEN,1,700.0/4.375000000000001e-07 $ ALLSEL
TIME,0.004109033 $ KBC,1 $ AUTOTS,ON $ DELTIM,0.000513629125,5.13629125e-05,0.0020545165 $ SOLVE
ESEL,S,MAT,,1 $ ESEL,R,CENT,Z,(0.0+0.0007)/2 $ BFE,ALL,HGEN,1,280.0/4.375000000000001e-07 $ ALLSEL
TIME,0.004200501 $ KBC,1 $ AUTOTS,ON $ DELTIM,1.25e-05,1.25e-06,5e-05 $ SOLVE
ESEL,S,MAT,,1 $ ESEL,R,CENT,Z,(0.0+0.0007)/2 $ BFE,ALL,HGEN,1,84.0/4.375000000000001e-07 $ ALLSEL
TIME,0.354203038 $ KBC,1 $ AUTOTS,ON $ DELTIM,0.043750317125,0.0043750317125,0.1750012685 $ SOLVE
ESEL,S,MAT,,1 $ ESEL,R,CENT,Z,(0.0+0.0007)/2 $ BFE,ALL,HGEN,1,700.0/4.375000000000001e-07 $ ALLSEL
TIME,0.358431995 $ KBC,1 $ AUTOTS,ON $ DELTIM,0.0005286196249999972,5.286196249999972e-05,0.002114478499999989 $ SOLVE
ESEL,S,MAT,,1 $ ESEL,R,CENT,Z,(0.0+0.0007)/2 $ BFE,ALL,HGEN,1,84.0/4.375000000000001e-07 $ ALLSEL
TIME,0.708434532 $ KBC,1 $ AUTOTS,ON $ DELTIM,0.04375031712499999,0.0043750317125,0.17500126849999997 $ SOLVE
ESEL,S,MAT,,1 $ ESEL,R,CENT,Z,(0.0+0.0007)/2 $ BFE,ALL,HGEN,1,140.0/4.375000000000001e-07 $ ALLSEL
TIME,0.708442424 $ KBC,1 $ AUTOTS,ON $ DELTIM,1.25e-05,1.25e-06,5e-05 $ SOLVE
ESEL,S,MAT,,1 $ ESEL,R,CENT,Z,(0.0+0.0007)/2 $ BFE,ALL,HGEN,1,140.0/4.375000000000001e-07 $ ALLSEL
TIME,0.708457183 $ KBC,1 $ AUTOTS,ON $ DELTIM,1.25e-05,1.25e-06,5e-05 $ SOLVE
ESEL,S,MAT,,1 $ ESEL,R,CENT,Z,(0.0+0.0007)/2 $ BFE,ALL,HGEN,1,84.0/4.375000000000001e-07 $ ALLSEL
TIME,1.05845972 $ KBC,1 $ AUTOTS,ON $ DELTIM,0.04375031712500001,0.0043750317125000006,0.17500126850000003 $ SOLVE
ESEL,S,MAT,,1 $ ESEL,R,CENT,Z,(0.0+0.0007)/2 $ BFE,ALL,HGEN,1,700.0/4.375000000000001e-07 $ ALLSEL
TIME,1.060798411 $ KBC,1 $ AUTOTS,ON $ DELTIM,0.00029233637499997966,2.9233637499997967e-05,0.0011693454999999187 $ SOLVE
ESEL,S,MAT,,1 $ ESEL,R,CENT,Z,(0.0+0.0007)/2 $ BFE,ALL,HGEN,1,84.0/4.375000000000001e-07 $ ALLSEL
TIME,1.410800948 $ KBC,1 $ AUTOTS,ON $ DELTIM,0.04375031712500002,0.004375031712500002,0.17500126850000008 $ SOLVE
ESEL,S,MAT,,1 $ ESEL,R,CENT,Z,(0.0+0.0007)/2 $ BFE,ALL,HGEN,1,280.0/4.375000000000001e-07 $ ALLSEL
TIME,1.410951058 $ KBC,1 $ AUTOTS,ON $ DELTIM,1.876374999998376e-05,1.876374999998376e-06,7.505499999993503e-05 $ SOLVE
ESEL,S,MAT,,1 $ ESEL,R,CENT,Z,(0.0+0.0007)/2 $ BFE,ALL,HGEN,1,700.0/4.375000000000001e-07 $ ALLSEL
TIME,1.419169736 $ KBC,1 $ AUTOTS,ON $ DELTIM,0.0010273347499999974,0.00010273347499999974,0.00410933899999999 $ SOLVE
ESEL,S,MAT,,1 $ ESEL,R,CENT,Z,(0.0+0.0007)/2 $ BFE,ALL,HGEN,1,700.0/4.375000000000001e-07 $ ALLSEL
TIME,1.42327877 $ KBC,1 $ AUTOTS,ON $ DELTIM,0.0005136292500000084,5.136292500000084e-05,0.0020545170000000335 $ SOLVE
ESEL,S,MAT,,1 $ ESEL,R,CENT,Z,(0.0+0.0007)/2 $ BFE,ALL,HGEN,1,280.0/4.375000000000001e-07 $ ALLSEL
TIME,1.423370238 $ KBC,1 $ AUTOTS,ON $ DELTIM,1.25e-05,1.25e-06,5e-05 $ SOLVE
ESEL,S,MAT,,1 $ ESEL,R,CENT,Z,(0.0+0.0007)/2 $ BFE,ALL,HGEN,1,84.0/4.375000000000001e-07 $ ALLSEL
TIME,1.773372775 $ KBC,1 $ AUTOTS,ON $ DELTIM,0.04375031712499999,0.0043750317125,0.17500126849999997 $ SOLVE
ESEL,S,MAT,,1 $ ESEL,R,CENT,Z,(0.0+0.0007)/2 $ BFE,ALL,HGEN,1,700.0/4.375000000000001e-07 $ ALLSEL
TIME,1.777601731 $ KBC,1 $ AUTOTS,ON $ DELTIM,0.0005286195000000216,5.2861950000002154e-05,0.0021144780000000862 $ SOLVE
ESEL,S,MAT,,1 $ ESEL,R,CENT,Z,(0.0+0.0007)/2 $ BFE,ALL,HGEN,1,84.0/4.375000000000001e-07 $ ALLSEL
TIME,2.127604268 $ KBC,1 $ AUTOTS,ON $ DELTIM,0.043750317124999966,0.004375031712499996,0.17500126849999986 $ SOLVE
ESEL,S,MAT,,1 $ ESEL,R,CENT,Z,(0.0+0.0007)/2 $ BFE,ALL,HGEN,1,140.0/4.375000000000001e-07 $ ALLSEL
TIME,2.12761216 $ KBC,1 $ AUTOTS,ON $ DELTIM,1.25e-05,1.25e-06,5e-05 $ SOLVE
ESEL,S,MAT,,1 $ ESEL,R,CENT,Z,(0.0+0.0007)/2 $ BFE,ALL,HGEN,1,140.0/4.375000000000001e-07 $ ALLSEL
TIME,2.127626919 $ KBC,1 $ AUTOTS,ON $ DELTIM,1.25e-05,1.25e-06,5e-05 $ SOLVE
ESEL,S,MAT,,1 $ ESEL,R,CENT,Z,(0.0+0.0007)/2 $ BFE,ALL,HGEN,1,84.0/4.375000000000001e-07 $ ALLSEL
TIME,2.477629456 $ KBC,1 $ AUTOTS,ON $ DELTIM,0.04375031712499999,0.0043750317125,0.17500126849999997 $ SOLVE
ESEL,S,MAT,,1 $ ESEL,R,CENT,Z,(0.0+0.0007)/2 $ BFE,ALL,HGEN,1,700.0/4.375000000000001e-07 $ ALLSEL
TIME,2.479968147 $ KBC,1 $ AUTOTS,ON $ DELTIM,0.0002923363750000352,2.9233637500003517e-05,0.0011693455000001407 $ SOLVE
ESEL,S,MAT,,1 $ ESEL,R,CENT,Z,(0.0+0.0007)/2 $ BFE,ALL,HGEN,1,84.0/4.375000000000001e-07 $ ALLSEL
TIME,2.829970684 $ KBC,1 $ AUTOTS,ON $ DELTIM,0.04375031712499999,0.0043750317125,0.17500126849999997 $ SOLVE
ESEL,S,MAT,,1 $ ESEL,R,CENT,Z,(0.0+0.0007)/2 $ BFE,ALL,HGEN,1,280.0/4.375000000000001e-07 $ ALLSEL
TIME,2.830120794 $ KBC,1 $ AUTOTS,ON $ DELTIM,1.876374999998376e-05,1.876374999998376e-06,7.505499999993503e-05 $ SOLVE
ESEL,S,MAT,,1 $ ESEL,R,CENT,Z,(0.0+0.0007)/2 $ BFE,ALL,HGEN,1,700.0/4.375000000000001e-07 $ ALLSEL
TIME,2.838339472 $ KBC,1 $ AUTOTS,ON $ DELTIM,0.0010273347499999974,0.00010273347499999974,0.00410933899999999 $ SOLVE
ESEL,S,MAT,,1 $ ESEL,R,CENT,Z,(0.0+0.0007)/2 $ BFE,ALL,HGEN,1,700.0/4.375000000000001e-07 $ ALLSEL
TIME,2.842448506 $ KBC,1 $ AUTOTS,ON $ DELTIM,0.0005136292500000361,5.136292500000361e-05,0.0020545170000001445 $ SOLVE
ESEL,S,MAT,,1 $ ESEL,R,CENT,Z,(0.0+0.0007)/2 $ BFE,ALL,HGEN,1,280.0/4.375000000000001e-07 $ ALLSEL
TIME,2.842539974 $ KBC,1 $ AUTOTS,ON $ DELTIM,1.25e-05,1.25e-06,5e-05 $ SOLVE
ESEL,S,MAT,,1 $ ESEL,R,CENT,Z,(0.0+0.0007)/2 $ BFE,ALL,HGEN,1,84.0/4.375000000000001e-07 $ ALLSEL
TIME,3.192542511 $ KBC,1 $ AUTOTS,ON $ DELTIM,0.04375031712499999,0.0043750317125,0.17500126849999997 $ SOLVE
ESEL,S,MAT,,1 $ ESEL,R,CENT,Z,(0.0+0.0007)/2 $ BFE,ALL,HGEN,1,700.0/4.375000000000001e-07 $ ALLSEL
TIME,3.196771467 $ KBC,1 $ AUTOTS,ON $ DELTIM,0.0005286194999999938,5.286194999999938e-05,0.002114477999999975 $ SOLVE
ESEL,S,MAT,,1 $ ESEL,R,CENT,Z,(0.0+0.0007)/2 $ BFE,ALL,HGEN,1,84.0/4.375000000000001e-07 $ ALLSEL
TIME,3.546774004 $ KBC,1 $ AUTOTS,ON $ DELTIM,0.04375031712499999,0.0043750317125,0.17500126849999997 $ SOLVE
ESEL,S,MAT,,1 $ ESEL,R,CENT,Z,(0.0+0.0007)/2 $ BFE,ALL,HGEN,1,140.0/4.375000000000001e-07 $ ALLSEL
TIME,3.546781897 $ KBC,1 $ AUTOTS,ON $ DELTIM,1.25e-05,1.25e-06,5e-05 $ SOLVE
ESEL,S,MAT,,1 $ ESEL,R,CENT,Z,(0.0+0.0007)/2 $ BFE,ALL,HGEN,1,140.0/4.375000000000001e-07 $ ALLSEL
TIME,3.546796655 $ KBC,1 $ AUTOTS,ON $ DELTIM,1.25e-05,1.25e-06,5e-05 $ SOLVE
ESEL,S,MAT,,1 $ ESEL,R,CENT,Z,(0.0+0.0007)/2 $ BFE,ALL,HGEN,1,84.0/4.375000000000001e-07 $ ALLSEL
TIME,3.896799192 $ KBC,1 $ AUTOTS,ON $ DELTIM,0.04375031712499999,0.0043750317125,0.17500126849999997 $ SOLVE
ESEL,S,MAT,,1 $ ESEL,R,CENT,Z,(0.0+0.0007)/2 $ BFE,ALL,HGEN,1,700.0/4.375000000000001e-07 $ ALLSEL
TIME,3.899137883 $ KBC,1 $ AUTOTS,ON $ DELTIM,0.00029233637499997966,2.9233637499997967e-05,0.0011693454999999187 $ SOLVE
ESEL,S,MAT,,1 $ ESEL,R,CENT,Z,(0.0+0.0007)/2 $ BFE,ALL,HGEN,1,84.0/4.375000000000001e-07 $ ALLSEL
TIME,4.24914042 $ KBC,1 $ AUTOTS,ON $ DELTIM,0.04375031712499999,0.0043750317125,0.17500126849999997 $ SOLVE
ESEL,S,MAT,,1 $ ESEL,R,CENT,Z,(0.0+0.0007)/2 $ BFE,ALL,HGEN,1,280.0/4.375000000000001e-07 $ ALLSEL
TIME,4.24929053 $ KBC,1 $ AUTOTS,ON $ DELTIM,1.876374999998376e-05,1.876374999998376e-06,7.505499999993503e-05 $ SOLVE
ESEL,S,MAT,,1 $ ESEL,R,CENT,Z,(0.0+0.0007)/2 $ BFE,ALL,HGEN,1,700.0/4.375000000000001e-07 $ ALLSEL
TIME,4.257509208 $ KBC,1 $ AUTOTS,ON $ DELTIM,0.001027334750000053,0.00010273347500000529,0.004109339000000212 $ SOLVE
ESEL,S,MAT,,1 $ ESEL,R,CENT,Z,(0.0+0.0007)/2 $ BFE,ALL,HGEN,1,700.0/4.375000000000001e-07 $ ALLSEL
TIME,4.261618242 $ KBC,1 $ AUTOTS,ON $ DELTIM,0.0005136292499999806,5.136292499999806e-05,0.0020545169999999224 $ SOLVE
ESEL,S,MAT,,1 $ ESEL,R,CENT,Z,(0.0+0.0007)/2 $ BFE,ALL,HGEN,1,280.0/4.375000000000001e-07 $ ALLSEL
TIME,4.26170971 $ KBC,1 $ AUTOTS,ON $ DELTIM,1.25e-05,1.25e-06,5e-05 $ SOLVE
ESEL,S,MAT,,1 $ ESEL,R,CENT,Z,(0.0+0.0007)/2 $ BFE,ALL,HGEN,1,84.0/4.375000000000001e-07 $ ALLSEL
TIME,4.611712247 $ KBC,1 $ AUTOTS,ON $ DELTIM,0.04375031712499999,0.0043750317125,0.17500126849999997 $ SOLVE
ESEL,S,MAT,,1 $ ESEL,R,CENT,Z,(0.0+0.0007)/2 $ BFE,ALL,HGEN,1,700.0/4.375000000000001e-07 $ ALLSEL
TIME,4.615941203 $ KBC,1 $ AUTOTS,ON $ DELTIM,0.0005286195000000493,5.286195000000493e-05,0.0021144780000001973 $ SOLVE
ESEL,S,MAT,,1 $ ESEL,R,CENT,Z,(0.0+0.0007)/2 $ BFE,ALL,HGEN,1,84.0/4.375000000000001e-07 $ ALLSEL
TIME,4.96594374 $ KBC,1 $ AUTOTS,ON $ DELTIM,0.04375031712499999,0.0043750317125,0.17500126849999997 $ SOLVE
ESEL,S,MAT,,1 $ ESEL,R,CENT,Z,(0.0+0.0007)/2 $ BFE,ALL,HGEN,1,140.0/4.375000000000001e-07 $ ALLSEL
TIME,4.965951633 $ KBC,1 $ AUTOTS,ON $ DELTIM,1.25e-05,1.25e-06,5e-05 $ SOLVE
ESEL,S,MAT,,1 $ ESEL,R,CENT,Z,(0.0+0.0007)/2 $ BFE,ALL,HGEN,1,140.0/4.375000000000001e-07 $ ALLSEL
TIME,4.965966391 $ KBC,1 $ AUTOTS,ON $ DELTIM,1.25e-05,1.25e-06,5e-05 $ SOLVE
ESEL,S,MAT,,1 $ ESEL,R,CENT,Z,(0.0+0.0007)/2 $ BFE,ALL,HGEN,1,84.0/4.375000000000001e-07 $ ALLSEL
TIME,5.315968928 $ KBC,1 $ AUTOTS,ON $ DELTIM,0.04375031712499999,0.0043750317125,0.17500126849999997 $ SOLVE
ESEL,S,MAT,,1 $ ESEL,R,CENT,Z,(0.0+0.0007)/2 $ BFE,ALL,HGEN,1,700.0/4.375000000000001e-07 $ ALLSEL
TIME,5.318307619 $ KBC,1 $ AUTOTS,ON $ DELTIM,0.00029233637499992415,2.9233637499992414e-05,0.0011693454999996966 $ SOLVE
ESEL,S,MAT,,1 $ ESEL,R,CENT,Z,(0.0+0.0007)/2 $ BFE,ALL,HGEN,1,84.0/4.375000000000001e-07 $ ALLSEL
TIME,5.668310156 $ KBC,1 $ AUTOTS,ON $ DELTIM,0.043750317125000104,0.00437503171250001,0.17500126850000042 $ SOLVE
ESEL,S,MAT,,1 $ ESEL,R,CENT,Z,(0.0+0.0007)/2 $ BFE,ALL,HGEN,1,280.0/4.375000000000001e-07 $ ALLSEL
TIME,5.668460266 $ KBC,1 $ AUTOTS,ON $ DELTIM,1.876374999998376e-05,1.876374999998376e-06,7.505499999993503e-05 $ SOLVE
ESEL,S,MAT,,1 $ ESEL,R,CENT,Z,(0.0+0.0007)/2 $ BFE,ALL,HGEN,1,700.0/4.375000000000001e-07 $ ALLSEL
TIME,5.676678944 $ KBC,1 $ AUTOTS,ON $ DELTIM,0.001027334749999942,0.00010273347499999419,0.004109338999999768 $ SOLVE
ESEL,S,MAT,,1 $ ESEL,R,CENT,Z,(0.0+0.0007)/2 $ BFE,ALL,HGEN,1,700.0/4.375000000000001e-07 $ ALLSEL
TIME,5.680787978 $ KBC,1 $ AUTOTS,ON $ DELTIM,0.0005136292499999806,5.136292499999806e-05,0.0020545169999999224 $ SOLVE
ESEL,S,MAT,,1 $ ESEL,R,CENT,Z,(0.0+0.0007)/2 $ BFE,ALL,HGEN,1,280.0/4.375000000000001e-07 $ ALLSEL
TIME,5.680879446 $ KBC,1 $ AUTOTS,ON $ DELTIM,1.25e-05,1.25e-06,5e-05 $ SOLVE
ESEL,S,MAT,,1 $ ESEL,R,CENT,Z,(0.0+0.0007)/2 $ BFE,ALL,HGEN,1,84.0/4.375000000000001e-07 $ ALLSEL
TIME,6.030881983 $ KBC,1 $ AUTOTS,ON $ DELTIM,0.04375031712499999,0.0043750317125,0.17500126849999997 $ SOLVE
ESEL,S,MAT,,1 $ ESEL,R,CENT,Z,(0.0+0.0007)/2 $ BFE,ALL,HGEN,1,700.0/4.375000000000001e-07 $ ALLSEL
TIME,6.035110939 $ KBC,1 $ AUTOTS,ON $ DELTIM,0.0005286195000000493,5.286195000000493e-05,0.0021144780000001973 $ SOLVE
ESEL,S,MAT,,1 $ ESEL,R,CENT,Z,(0.0+0.0007)/2 $ BFE,ALL,HGEN,1,84.0/4.375000000000001e-07 $ ALLSEL
TIME,6.385113476 $ KBC,1 $ AUTOTS,ON $ DELTIM,0.04375031712499999,0.0043750317125,0.17500126849999997 $ SOLVE
ESEL,S,MAT,,1 $ ESEL,R,CENT,Z,(0.0+0.0007)/2 $ BFE,ALL,HGEN,1,140.0/4.375000000000001e-07 $ ALLSEL
TIME,6.385121369 $ KBC,1 $ AUTOTS,ON $ DELTIM,1.25e-05,1.25e-06,5e-05 $ SOLVE
ESEL,S,MAT,,1 $ ESEL,R,CENT,Z,(0.0+0.0007)/2 $ BFE,ALL,HGEN,1,140.0/4.375000000000001e-07 $ ALLSEL
TIME,6.385136128 $ KBC,1 $ AUTOTS,ON $ DELTIM,1.25e-05,1.25e-06,5e-05 $ SOLVE
ESEL,S,MAT,,1 $ ESEL,R,CENT,Z,(0.0+0.0007)/2 $ BFE,ALL,HGEN,1,84.0/4.375000000000001e-07 $ ALLSEL
TIME,6.735138665 $ KBC,1 $ AUTOTS,ON $ DELTIM,0.04375031712499999,0.0043750317125,0.17500126849999997 $ SOLVE
ESEL,S,MAT,,1 $ ESEL,R,CENT,Z,(0.0+0.0007)/2 $ BFE,ALL,HGEN,1,700.0/4.375000000000001e-07 $ ALLSEL
TIME,6.737477355 $ KBC,1 $ AUTOTS,ON $ DELTIM,0.00029233625000002483,2.9233625000002483e-05,0.0011693450000000993 $ SOLVE
ESEL,S,MAT,,1 $ ESEL,R,CENT,Z,(0.0+0.0007)/2 $ BFE,ALL,HGEN,1,84.0/4.375000000000001e-07 $ ALLSEL
TIME,7.087479892 $ KBC,1 $ AUTOTS,ON $ DELTIM,0.04375031712499999,0.0043750317125,0.17500126849999997 $ SOLVE
ESEL,S,MAT,,1 $ ESEL,R,CENT,Z,(0.0+0.0007)/2 $ BFE,ALL,HGEN,1,280.0/4.375000000000001e-07 $ ALLSEL
TIME,7.087630002 $ KBC,1 $ AUTOTS,ON $ DELTIM,1.876374999998376e-05,1.876374999998376e-06,7.505499999993503e-05 $ SOLVE
ESEL,S,MAT,,1 $ ESEL,R,CENT,Z,(0.0+0.0007)/2 $ BFE,ALL,HGEN,1,700.0/4.375000000000001e-07 $ ALLSEL
TIME,7.095848681 $ KBC,1 $ AUTOTS,ON $ DELTIM,0.0010273348749999522,0.00010273348749999523,0.004109339499999809 $ SOLVE
ESEL,S,MAT,,1 $ ESEL,R,CENT,Z,(0.0+0.0007)/2 $ BFE,ALL,HGEN,1,700.0/4.375000000000001e-07 $ ALLSEL
TIME,7.099957714 $ KBC,1 $ AUTOTS,ON $ DELTIM,0.0005136291250000813,5.136291250000813e-05,0.002054516500000325 $ SOLVE
ESEL,S,MAT,,1 $ ESEL,R,CENT,Z,(0.0+0.0007)/2 $ BFE,ALL,HGEN,1,280.0/4.375000000000001e-07 $ ALLSEL
TIME,7.100049182 $ KBC,1 $ AUTOTS,ON $ DELTIM,1.25e-05,1.25e-06,5e-05 $ SOLVE
ESEL,S,MAT,,1 $ ESEL,R,CENT,Z,(0.0+0.0007)/2 $ BFE,ALL,HGEN,1,84.0/4.375000000000001e-07 $ ALLSEL
TIME,7.450051719 $ KBC,1 $ AUTOTS,ON $ DELTIM,0.04375031712499999,0.0043750317125,0.17500126849999997 $ SOLVE
ESEL,S,MAT,,1 $ ESEL,R,CENT,Z,(0.0+0.0007)/2 $ BFE,ALL,HGEN,1,700.0/4.375000000000001e-07 $ ALLSEL
TIME,7.454280676 $ KBC,1 $ AUTOTS,ON $ DELTIM,0.0005286196249999486,5.286196249999486e-05,0.0021144784999997945 $ SOLVE
ESEL,S,MAT,,1 $ ESEL,R,CENT,Z,(0.0+0.0007)/2 $ BFE,ALL,HGEN,1,84.0/4.375000000000001e-07 $ ALLSEL
TIME,7.804283213 $ KBC,1 $ AUTOTS,ON $ DELTIM,0.04375031712499999,0.0043750317125,0.17500126849999997 $ SOLVE
ESEL,S,MAT,,1 $ ESEL,R,CENT,Z,(0.0+0.0007)/2 $ BFE,ALL,HGEN,1,140.0/4.375000000000001e-07 $ ALLSEL
TIME,7.804291105 $ KBC,1 $ AUTOTS,ON $ DELTIM,1.25e-05,1.25e-06,5e-05 $ SOLVE
ESEL,S,MAT,,1 $ ESEL,R,CENT,Z,(0.0+0.0007)/2 $ BFE,ALL,HGEN,1,140.0/4.375000000000001e-07 $ ALLSEL
TIME,7.804305864 $ KBC,1 $ AUTOTS,ON $ DELTIM,1.25e-05,1.25e-06,5e-05 $ SOLVE
ESEL,S,MAT,,1 $ ESEL,R,CENT,Z,(0.0+0.0007)/2 $ BFE,ALL,HGEN,1,84.0/4.375000000000001e-07 $ ALLSEL
TIME,8.154308401 $ KBC,1 $ AUTOTS,ON $ DELTIM,0.04375031712499999,0.0043750317125,0.17500126849999997 $ SOLVE
ESEL,S,MAT,,1 $ ESEL,R,CENT,Z,(0.0+0.0007)/2 $ BFE,ALL,HGEN,1,700.0/4.375000000000001e-07 $ ALLSEL
TIME,8.156647091 $ KBC,1 $ AUTOTS,ON $ DELTIM,0.00029233625000002483,2.9233625000002483e-05,0.0011693450000000993 $ SOLVE
ESEL,S,MAT,,1 $ ESEL,R,CENT,Z,(0.0+0.0007)/2 $ BFE,ALL,HGEN,1,84.0/4.375000000000001e-07 $ ALLSEL
TIME,8.506649628 $ KBC,1 $ AUTOTS,ON $ DELTIM,0.04375031712499999,0.0043750317125,0.17500126849999997 $ SOLVE
ESEL,S,MAT,,1 $ ESEL,R,CENT,Z,(0.0+0.0007)/2 $ BFE,ALL,HGEN,1,280.0/4.375000000000001e-07 $ ALLSEL
TIME,8.506799739 $ KBC,1 $ AUTOTS,ON $ DELTIM,1.87638749999941e-05,1.8763874999994102e-06,7.50554999999764e-05 $ SOLVE
ESEL,S,MAT,,1 $ ESEL,R,CENT,Z,(0.0+0.0007)/2 $ BFE,ALL,HGEN,1,700.0/4.375000000000001e-07 $ ALLSEL
TIME,8.515018417 $ KBC,1 $ AUTOTS,ON $ DELTIM,0.001027334750000053,0.00010273347500000529,0.004109339000000212 $ SOLVE
ESEL,S,MAT,,1 $ ESEL,R,CENT,Z,(0.0+0.0007)/2 $ BFE,ALL,HGEN,1,700.0/4.375000000000001e-07 $ ALLSEL
TIME,8.51912745 $ KBC,1 $ AUTOTS,ON $ DELTIM,0.0005136291249998592,5.1362912499985926e-05,0.002054516499999437 $ SOLVE
ESEL,S,MAT,,1 $ ESEL,R,CENT,Z,(0.0+0.0007)/2 $ BFE,ALL,HGEN,1,280.0/4.375000000000001e-07 $ ALLSEL
TIME,8.519218918 $ KBC,1 $ AUTOTS,ON $ DELTIM,1.25e-05,1.25e-06,5e-05 $ SOLVE
ESEL,S,MAT,,1 $ ESEL,R,CENT,Z,(0.0+0.0007)/2 $ BFE,ALL,HGEN,1,84.0/4.375000000000001e-07 $ ALLSEL
TIME,8.869221455 $ KBC,1 $ AUTOTS,ON $ DELTIM,0.04375031712499999,0.0043750317125,0.17500126849999997 $ SOLVE
ESEL,S,MAT,,1 $ ESEL,R,CENT,Z,(0.0+0.0007)/2 $ BFE,ALL,HGEN,1,700.0/4.375000000000001e-07 $ ALLSEL
TIME,8.873450412 $ KBC,1 $ AUTOTS,ON $ DELTIM,0.0005286196250000597,5.286196250000597e-05,0.0021144785000002386 $ SOLVE
ESEL,S,MAT,,1 $ ESEL,R,CENT,Z,(0.0+0.0007)/2 $ BFE,ALL,HGEN,1,84.0/4.375000000000001e-07 $ ALLSEL
TIME,9.223452949 $ KBC,1 $ AUTOTS,ON $ DELTIM,0.04375031712499999,0.0043750317125,0.17500126849999997 $ SOLVE
ESEL,S,MAT,,1 $ ESEL,R,CENT,Z,(0.0+0.0007)/2 $ BFE,ALL,HGEN,1,140.0/4.375000000000001e-07 $ ALLSEL
TIME,9.223460841 $ KBC,1 $ AUTOTS,ON $ DELTIM,1.25e-05,1.25e-06,5e-05 $ SOLVE
ESEL,S,MAT,,1 $ ESEL,R,CENT,Z,(0.0+0.0007)/2 $ BFE,ALL,HGEN,1,140.0/4.375000000000001e-07 $ ALLSEL
TIME,9.2234756 $ KBC,1 $ AUTOTS,ON $ DELTIM,1.25e-05,1.25e-06,5e-05 $ SOLVE
ESEL,S,MAT,,1 $ ESEL,R,CENT,Z,(0.0+0.0007)/2 $ BFE,ALL,HGEN,1,84.0/4.375000000000001e-07 $ ALLSEL
TIME,9.573478137 $ KBC,1 $ AUTOTS,ON $ DELTIM,0.04375031712499999,0.0043750317125,0.17500126849999997 $ SOLVE
ESEL,S,MAT,,1 $ ESEL,R,CENT,Z,(0.0+0.0007)/2 $ BFE,ALL,HGEN,1,700.0/4.375000000000001e-07 $ ALLSEL
TIME,9.575816827 $ KBC,1 $ AUTOTS,ON $ DELTIM,0.00029233625000002483,2.9233625000002483e-05,0.0011693450000000993 $ SOLVE
ESEL,S,MAT,,1 $ ESEL,R,CENT,Z,(0.0+0.0007)/2 $ BFE,ALL,HGEN,1,84.0/4.375000000000001e-07 $ ALLSEL
TIME,9.925819364 $ KBC,1 $ AUTOTS,ON $ DELTIM,0.04375031712499999,0.0043750317125,0.17500126849999997 $ SOLVE
ESEL,S,MAT,,1 $ ESEL,R,CENT,Z,(0.0+0.0007)/2 $ BFE,ALL,HGEN,1,280.0/4.375000000000001e-07 $ ALLSEL
TIME,9.925969475 $ KBC,1 $ AUTOTS,ON $ DELTIM,1.87638749999941e-05,1.8763874999994102e-06,7.50554999999764e-05 $ SOLVE
ESEL,S,MAT,,1 $ ESEL,R,CENT,Z,(0.0+0.0007)/2 $ BFE,ALL,HGEN,1,700.0/4.375000000000001e-07 $ ALLSEL
TIME,9.934188153 $ KBC,1 $ AUTOTS,ON $ DELTIM,0.0010273347499998309,0.00010273347499998309,0.0041093389999993235 $ SOLVE
ESEL,S,MAT,,1 $ ESEL,R,CENT,Z,(0.0+0.0007)/2 $ BFE,ALL,HGEN,1,700.0/4.375000000000001e-07 $ ALLSEL
TIME,9.938297186 $ KBC,1 $ AUTOTS,ON $ DELTIM,0.0005136291250000813,5.136291250000813e-05,0.002054516500000325 $ SOLVE
ESEL,S,MAT,,1 $ ESEL,R,CENT,Z,(0.0+0.0007)/2 $ BFE,ALL,HGEN,1,280.0/4.375000000000001e-07 $ ALLSEL
TIME,9.938388654 $ KBC,1 $ AUTOTS,ON $ DELTIM,1.25e-05,1.25e-06,5e-05 $ SOLVE
ESEL,S,MAT,,1 $ ESEL,R,CENT,Z,(0.0+0.0007)/2 $ BFE,ALL,HGEN,1,84.0/4.375000000000001e-07 $ ALLSEL
TIME,10.288391191 $ KBC,1 $ AUTOTS,ON $ DELTIM,0.04375031712499999,0.0043750317125,0.17500126849999997 $ SOLVE
ESEL,S,MAT,,1 $ ESEL,R,CENT,Z,(0.0+0.0007)/2 $ BFE,ALL,HGEN,1,700.0/4.375000000000001e-07 $ ALLSEL
TIME,10.292620148 $ KBC,1 $ AUTOTS,ON $ DELTIM,0.0005286196249998376,5.286196249998376e-05,0.0021144784999993504 $ SOLVE
ESEL,S,MAT,,1 $ ESEL,R,CENT,Z,(0.0+0.0007)/2 $ BFE,ALL,HGEN,1,84.0/4.375000000000001e-07 $ ALLSEL
TIME,10.642622685 $ KBC,1 $ AUTOTS,ON $ DELTIM,0.04375031712499999,0.0043750317125,0.17500126849999997 $ SOLVE
ESEL,S,MAT,,1 $ ESEL,R,CENT,Z,(0.0+0.0007)/2 $ BFE,ALL,HGEN,1,140.0/4.375000000000001e-07 $ ALLSEL
TIME,10.642630577 $ KBC,1 $ AUTOTS,ON $ DELTIM,1.25e-05,1.25e-06,5e-05 $ SOLVE
ESEL,S,MAT,,1 $ ESEL,R,CENT,Z,(0.0+0.0007)/2 $ BFE,ALL,HGEN,1,140.0/4.375000000000001e-07 $ ALLSEL
TIME,10.642645336 $ KBC,1 $ AUTOTS,ON $ DELTIM,1.25e-05,1.25e-06,5e-05 $ SOLVE
ESEL,S,MAT,,1 $ ESEL,R,CENT,Z,(0.0+0.0007)/2 $ BFE,ALL,HGEN,1,84.0/4.375000000000001e-07 $ ALLSEL
TIME,10.992647873 $ KBC,1 $ AUTOTS,ON $ DELTIM,0.04375031712499999,0.0043750317125,0.17500126849999997 $ SOLVE
ESEL,S,MAT,,1 $ ESEL,R,CENT,Z,(0.0+0.0007)/2 $ BFE,ALL,HGEN,1,700.0/4.375000000000001e-07 $ ALLSEL
TIME,10.994986563 $ KBC,1 $ AUTOTS,ON $ DELTIM,0.00029233625000002483,2.9233625000002483e-05,0.0011693450000000993 $ SOLVE
ESEL,S,MAT,,1 $ ESEL,R,CENT,Z,(0.0+0.0007)/2 $ BFE,ALL,HGEN,1,84.0/4.375000000000001e-07 $ ALLSEL
TIME,11.3449891 $ KBC,1 $ AUTOTS,ON $ DELTIM,0.04375031712499999,0.0043750317125,0.17500126849999997 $ SOLVE
ESEL,S,MAT,,1 $ ESEL,R,CENT,Z,(0.0+0.0007)/2 $ BFE,ALL,HGEN,1,280.0/4.375000000000001e-07 $ ALLSEL
TIME,11.345139211 $ KBC,1 $ AUTOTS,ON $ DELTIM,1.87638749999941e-05,1.8763874999994102e-06,7.50554999999764e-05 $ SOLVE
ESEL,S,MAT,,1 $ ESEL,R,CENT,Z,(0.0+0.0007)/2 $ BFE,ALL,HGEN,1,700.0/4.375000000000001e-07 $ ALLSEL
TIME,11.353357889 $ KBC,1 $ AUTOTS,ON $ DELTIM,0.001027334750000053,0.00010273347500000529,0.004109339000000212 $ SOLVE
ESEL,S,MAT,,1 $ ESEL,R,CENT,Z,(0.0+0.0007)/2 $ BFE,ALL,HGEN,1,700.0/4.375000000000001e-07 $ ALLSEL
TIME,11.357466922 $ KBC,1 $ AUTOTS,ON $ DELTIM,0.0005136291250000813,5.136291250000813e-05,0.002054516500000325 $ SOLVE
ESEL,S,MAT,,1 $ ESEL,R,CENT,Z,(0.0+0.0007)/2 $ BFE,ALL,HGEN,1,280.0/4.375000000000001e-07 $ ALLSEL
TIME,11.35755839 $ KBC,1 $ AUTOTS,ON $ DELTIM,1.25e-05,1.25e-06,5e-05 $ SOLVE
ESEL,S,MAT,,1 $ ESEL,R,CENT,Z,(0.0+0.0007)/2 $ BFE,ALL,HGEN,1,84.0/4.375000000000001e-07 $ ALLSEL
TIME,11.707560927 $ KBC,1 $ AUTOTS,ON $ DELTIM,0.04375031712499999,0.0043750317125,0.17500126849999997 $ SOLVE
ESEL,S,MAT,,1 $ ESEL,R,CENT,Z,(0.0+0.0007)/2 $ BFE,ALL,HGEN,1,700.0/4.375000000000001e-07 $ ALLSEL
TIME,11.711789884 $ KBC,1 $ AUTOTS,ON $ DELTIM,0.0005286196250000597,5.286196250000597e-05,0.0021144785000002386 $ SOLVE
ESEL,S,MAT,,1 $ ESEL,R,CENT,Z,(0.0+0.0007)/2 $ BFE,ALL,HGEN,1,84.0/4.375000000000001e-07 $ ALLSEL
TIME,12.061792421 $ KBC,1 $ AUTOTS,ON $ DELTIM,0.04375031712499999,0.0043750317125,0.17500126849999997 $ SOLVE
ESEL,S,MAT,,1 $ ESEL,R,CENT,Z,(0.0+0.0007)/2 $ BFE,ALL,HGEN,1,140.0/4.375000000000001e-07 $ ALLSEL
TIME,12.061800313 $ KBC,1 $ AUTOTS,ON $ DELTIM,1.25e-05,1.25e-06,5e-05 $ SOLVE
ESEL,S,MAT,,1 $ ESEL,R,CENT,Z,(0.0+0.0007)/2 $ BFE,ALL,HGEN,1,140.0/4.375000000000001e-07 $ ALLSEL
TIME,12.061815072 $ KBC,1 $ AUTOTS,ON $ DELTIM,1.25e-05,1.25e-06,5e-05 $ SOLVE
ESEL,S,MAT,,1 $ ESEL,R,CENT,Z,(0.0+0.0007)/2 $ BFE,ALL,HGEN,1,84.0/4.375000000000001e-07 $ ALLSEL
TIME,12.411817609 $ KBC,1 $ AUTOTS,ON $ DELTIM,0.04375031712499999,0.0043750317125,0.17500126849999997 $ SOLVE
ESEL,S,MAT,,1 $ ESEL,R,CENT,Z,(0.0+0.0007)/2 $ BFE,ALL,HGEN,1,700.0/4.375000000000001e-07 $ ALLSEL
TIME,12.414156299 $ KBC,1 $ AUTOTS,ON $ DELTIM,0.00029233625000002483,2.9233625000002483e-05,0.0011693450000000993 $ SOLVE
ESEL,S,MAT,,1 $ ESEL,R,CENT,Z,(0.0+0.0007)/2 $ BFE,ALL,HGEN,1,84.0/4.375000000000001e-07 $ ALLSEL
TIME,12.764158836 $ KBC,1 $ AUTOTS,ON $ DELTIM,0.04375031712499999,0.0043750317125,0.17500126849999997 $ SOLVE
ESEL,S,MAT,,1 $ ESEL,R,CENT,Z,(0.0+0.0007)/2 $ BFE,ALL,HGEN,1,280.0/4.375000000000001e-07 $ ALLSEL
TIME,12.764308947 $ KBC,1 $ AUTOTS,ON $ DELTIM,1.87638749999941e-05,1.8763874999994102e-06,7.50554999999764e-05 $ SOLVE
ESEL,S,MAT,,1 $ ESEL,R,CENT,Z,(0.0+0.0007)/2 $ BFE,ALL,HGEN,1,700.0/4.375000000000001e-07 $ ALLSEL
TIME,12.772527625 $ KBC,1 $ AUTOTS,ON $ DELTIM,0.001027334750000053,0.00010273347500000529,0.004109339000000212 $ SOLVE
ESEL,S,MAT,,1 $ ESEL,R,CENT,Z,(0.0+0.0007)/2 $ BFE,ALL,HGEN,1,700.0/4.375000000000001e-07 $ ALLSEL
TIME,12.776636658 $ KBC,1 $ AUTOTS,ON $ DELTIM,0.0005136291249998592,5.1362912499985926e-05,0.002054516499999437 $ SOLVE
ESEL,S,MAT,,1 $ ESEL,R,CENT,Z,(0.0+0.0007)/2 $ BFE,ALL,HGEN,1,280.0/4.375000000000001e-07 $ ALLSEL
TIME,12.776728126 $ KBC,1 $ AUTOTS,ON $ DELTIM,1.25e-05,1.25e-06,5e-05 $ SOLVE
ESEL,S,MAT,,1 $ ESEL,R,CENT,Z,(0.0+0.0007)/2 $ BFE,ALL,HGEN,1,84.0/4.375000000000001e-07 $ ALLSEL
TIME,13.126730663 $ KBC,1 $ AUTOTS,ON $ DELTIM,0.04375031712499999,0.0043750317125,0.17500126849999997 $ SOLVE
ESEL,S,MAT,,1 $ ESEL,R,CENT,Z,(0.0+0.0007)/2 $ BFE,ALL,HGEN,1,700.0/4.375000000000001e-07 $ ALLSEL
TIME,13.13095962 $ KBC,1 $ AUTOTS,ON $ DELTIM,0.0005286196250000597,5.286196250000597e-05,0.0021144785000002386 $ SOLVE
ESEL,S,MAT,,1 $ ESEL,R,CENT,Z,(0.0+0.0007)/2 $ BFE,ALL,HGEN,1,84.0/4.375000000000001e-07 $ ALLSEL
TIME,13.480962157 $ KBC,1 $ AUTOTS,ON $ DELTIM,0.04375031712499999,0.0043750317125,0.17500126849999997 $ SOLVE
ESEL,S,MAT,,1 $ ESEL,R,CENT,Z,(0.0+0.0007)/2 $ BFE,ALL,HGEN,1,140.0/4.375000000000001e-07 $ ALLSEL
TIME,13.480970049 $ KBC,1 $ AUTOTS,ON $ DELTIM,1.25e-05,1.25e-06,5e-05 $ SOLVE
ESEL,S,MAT,,1 $ ESEL,R,CENT,Z,(0.0+0.0007)/2 $ BFE,ALL,HGEN,1,140.0/4.375000000000001e-07 $ ALLSEL
TIME,13.480984808 $ KBC,1 $ AUTOTS,ON $ DELTIM,1.25e-05,1.25e-06,5e-05 $ SOLVE
ESEL,S,MAT,,1 $ ESEL,R,CENT,Z,(0.0+0.0007)/2 $ BFE,ALL,HGEN,1,84.0/4.375000000000001e-07 $ ALLSEL
TIME,13.830987345 $ KBC,1 $ AUTOTS,ON $ DELTIM,0.04375031712499999,0.0043750317125,0.17500126849999997 $ SOLVE
ESEL,S,MAT,,1 $ ESEL,R,CENT,Z,(0.0+0.0007)/2 $ BFE,ALL,HGEN,1,700.0/4.375000000000001e-07 $ ALLSEL
TIME,13.833326036 $ KBC,1 $ AUTOTS,ON $ DELTIM,0.0002923363750000352,2.9233637500003517e-05,0.0011693455000001407 $ SOLVE
ESEL,S,MAT,,1 $ ESEL,R,CENT,Z,(0.0+0.0007)/2 $ BFE,ALL,HGEN,1,84.0/4.375000000000001e-07 $ ALLSEL
TIME,14.183328573 $ KBC,1 $ AUTOTS,ON $ DELTIM,0.04375031712499999,0.0043750317125,0.17500126849999997 $ SOLVE
ESEL,S,MAT,,1 $ ESEL,R,CENT,Z,(0.0+0.0007)/2 $ BFE,ALL,HGEN,1,280.0/4.375000000000001e-07 $ ALLSEL
TIME,14.183478683 $ KBC,1 $ AUTOTS,ON $ DELTIM,1.876374999998376e-05,1.876374999998376e-06,7.505499999993503e-05 $ SOLVE
ESEL,S,MAT,,1 $ ESEL,R,CENT,Z,(0.0+0.0007)/2 $ BFE,ALL,HGEN,1,700.0/4.375000000000001e-07 $ ALLSEL
TIME,14.191697361 $ KBC,1 $ AUTOTS,ON $ DELTIM,0.0010273347499998309,0.00010273347499998309,0.0041093389999993235 $ SOLVE
FINISH

/POST26
NUMVAR,200
NSOL,2,NMON,TEMP
/OUTPUT,qwenmoe_pic_transient_L4seq4096,csv
PRVAR,2
/OUTPUT
FINISH
