/PREP7
! ===== ICCAD2026 OIO3D GPU/EIC/aPIC transient (Coenen et al. TCPMT 2026 params) =====
MP,KXX,1,150.0 $ MP,KYY,1,150.0 $ MP,KZZ,1,150.0 $ MP,DENS,1,2330 $ MP,C,1,700
MP,KXX,2,5.0 $ MP,KYY,2,5.0 $ MP,KZZ,2,5.0 $ MP,DENS,2,2500 $ MP,C,2,800
MP,KXX,3,80.0 $ MP,KYY,3,80.0 $ MP,KZZ,3,80.0 $ MP,DENS,3,2300 $ MP,C,3,700
MP,KXX,4,2.55 $ MP,KYY,4,2.55 $ MP,KZZ,4,2.55 $ MP,DENS,4,2500 $ MP,C,4,800
ET,1,SOLID70
ESIZE,0.025/20
BLOCK,0,0.025,0,0.025,0.0,0.0007 $ VSEL,S,LOC,Z,(0.0+0.0007)/2 $ VATT,1,,1 $ VMESH,ALL $ ALLSEL
BLOCK,0,0.025,0,0.025,0.0007,0.0007023999999999999 $ VSEL,S,LOC,Z,(0.0007+0.0007023999999999999)/2 $ VATT,2,,1 $ VMESH,ALL $ ALLSEL
BLOCK,0,0.025,0,0.025,0.0007023999999999999,0.0008024 $ VSEL,S,LOC,Z,(0.0007023999999999999+0.0008024)/2 $ VATT,1,,1 $ VMESH,ALL $ ALLSEL
BLOCK,0,0.025,0,0.025,0.0008024,0.0008047999999999999 $ VSEL,S,LOC,Z,(0.0008024+0.0008047999999999999)/2 $ VATT,2,,1 $ VMESH,ALL $ ALLSEL
BLOCK,0,0.025,0,0.025,0.0008047999999999999,0.0008548 $ VSEL,S,LOC,Z,(0.0008047999999999999+0.0008548)/2 $ VATT,3,,1 $ VMESH,ALL $ ALLSEL
BLOCK,0,0.025,0,0.025,0.0008548,0.0008571999999999999 $ VSEL,S,LOC,Z,(0.0008548+0.0008571999999999999)/2 $ VATT,4,,1 $ VMESH,ALL $ ALLSEL
BLOCK,0,0.025,0,0.025,0.0008571999999999999,0.0011572 $ VSEL,S,LOC,Z,(0.0008571999999999999+0.0011572)/2 $ VATT,1,,1 $ VMESH,ALL $ ALLSEL
ALLSEL $ NUMMRG,NODE,1e-9 $ NUMCMP,NODE
VOL_XPU=4.375000000000001e-07
ESEL,S,MAT,,1 $ ESEL,R,CENT,Z,(0.0007023999999999999+0.0008024)/2 $ BFE,ALL,HGEN,1,266.25/6.250000000000001e-08 $ ALLSEL
ESEL,S,MAT,,3 $ BFE,ALL,HGEN,1,70.625/3.1250000000000005e-08 $ ALLSEL
ASEL,S,LOC,Z,0.0 $ SFA,ALL,,CONV,70000.0,45.0 $ ALLSEL
ASEL,S,LOC,Z,0.0011572 $ SFA,ALL,,CONV,16000.0000,45.0 $ ALLSEL
NMON=NODE(0.025/2,0.025/2,(0.0008047999999999999+0.0008548)/2)
FINISH

/SOLU
ANTYPE,TRANS
TRNOPT,FULL
OUTRES,ALL,ALL
TIMINT,OFF
ESEL,S,MAT,,1 $ ESEL,R,CENT,Z,(0.0+0.0007)/2 $ BFE,ALL,HGEN,1,700.0/4.375000000000001e-07 $ ALLSEL
TIME,1e-3 $ KBC,1 $ SOLVE
TIMINT,ON
ESEL,S,MAT,,1 $ ESEL,R,CENT,Z,(0.0+0.0007)/2 $ BFE,ALL,HGEN,1,700.0/4.375000000000001e-07 $ ALLSEL
TIME,0.024653903 $ KBC,1 $ AUTOTS,ON $ DELTIM,0.003081737875,0.0003081737875,0.0123269515 $ SOLVE
ESEL,S,MAT,,1 $ ESEL,R,CENT,Z,(0.0+0.0007)/2 $ BFE,ALL,HGEN,1,280.0/4.375000000000001e-07 $ ALLSEL
TIME,0.024901996 $ KBC,1 $ AUTOTS,ON $ DELTIM,3.101162499999973e-05,3.101162499999973e-06,0.00012404649999999892 $ SOLVE
ESEL,S,MAT,,1 $ ESEL,R,CENT,Z,(0.0+0.0007)/2 $ BFE,ALL,HGEN,1,84.0/4.375000000000001e-07 $ ALLSEL
TIME,0.374904533 $ KBC,1 $ AUTOTS,ON $ DELTIM,0.043750317125,0.0043750317125,0.1750012685 $ SOLVE
ESEL,S,MAT,,1 $ ESEL,R,CENT,Z,(0.0+0.0007)/2 $ BFE,ALL,HGEN,1,700.0/4.375000000000001e-07 $ ALLSEL
TIME,0.40043825 $ KBC,1 $ AUTOTS,ON $ DELTIM,0.0031917146250000014,0.00031917146250000014,0.012766858500000006 $ SOLVE
ESEL,S,MAT,,1 $ ESEL,R,CENT,Z,(0.0+0.0007)/2 $ BFE,ALL,HGEN,1,84.0/4.375000000000001e-07 $ ALLSEL
TIME,0.750440787 $ KBC,1 $ AUTOTS,ON $ DELTIM,0.04375031712500001,0.0043750317125000006,0.17500126850000003 $ SOLVE
ESEL,S,MAT,,1 $ ESEL,R,CENT,Z,(0.0+0.0007)/2 $ BFE,ALL,HGEN,1,140.0/4.375000000000001e-07 $ ALLSEL
TIME,0.750487887 $ KBC,1 $ AUTOTS,ON $ DELTIM,1.25e-05,1.25e-06,5e-05 $ SOLVE
ESEL,S,MAT,,1 $ ESEL,R,CENT,Z,(0.0+0.0007)/2 $ BFE,ALL,HGEN,1,140.0/4.375000000000001e-07 $ ALLSEL
TIME,0.750576778 $ KBC,1 $ AUTOTS,ON $ DELTIM,1.25e-05,1.25e-06,5e-05 $ SOLVE
ESEL,S,MAT,,1 $ ESEL,R,CENT,Z,(0.0+0.0007)/2 $ BFE,ALL,HGEN,1,84.0/4.375000000000001e-07 $ ALLSEL
TIME,1.100579315 $ KBC,1 $ AUTOTS,ON $ DELTIM,0.04375031712500001,0.0043750317125000006,0.17500126850000003 $ SOLVE
ESEL,S,MAT,,1 $ ESEL,R,CENT,Z,(0.0+0.0007)/2 $ BFE,ALL,HGEN,1,700.0/4.375000000000001e-07 $ ALLSEL
TIME,1.114610667 $ KBC,1 $ AUTOTS,ON $ DELTIM,0.0017539189999999927,0.00017539189999999928,0.007015675999999971 $ SOLVE
ESEL,S,MAT,,1 $ ESEL,R,CENT,Z,(0.0+0.0007)/2 $ BFE,ALL,HGEN,1,84.0/4.375000000000001e-07 $ ALLSEL
TIME,1.464613204 $ KBC,1 $ AUTOTS,ON $ DELTIM,0.04375031712499999,0.0043750317125,0.17500126849999997 $ SOLVE
ESEL,S,MAT,,1 $ ESEL,R,CENT,Z,(0.0+0.0007)/2 $ BFE,ALL,HGEN,1,280.0/4.375000000000001e-07 $ ALLSEL
TIME,1.464946822 $ KBC,1 $ AUTOTS,ON $ DELTIM,4.17022499999975e-05,4.17022499999975e-06,0.00016680899999999 $ SOLVE
ESEL,S,MAT,,1 $ ESEL,R,CENT,Z,(0.0+0.0007)/2 $ BFE,ALL,HGEN,1,700.0/4.375000000000001e-07 $ ALLSEL
TIME,1.514259203 $ KBC,1 $ AUTOTS,ON $ DELTIM,0.006164047625000002,0.0006164047625000002,0.024656190500000008 $ SOLVE
ESEL,S,MAT,,1 $ ESEL,R,CENT,Z,(0.0+0.0007)/2 $ BFE,ALL,HGEN,1,700.0/4.375000000000001e-07 $ ALLSEL
TIME,1.538913106 $ KBC,1 $ AUTOTS,ON $ DELTIM,0.003081737875000018,0.0003081737875000018,0.012326951500000072 $ SOLVE
ESEL,S,MAT,,1 $ ESEL,R,CENT,Z,(0.0+0.0007)/2 $ BFE,ALL,HGEN,1,280.0/4.375000000000001e-07 $ ALLSEL
TIME,1.539161199 $ KBC,1 $ AUTOTS,ON $ DELTIM,3.101162499999366e-05,3.101162499999366e-06,0.00012404649999997464 $ SOLVE
ESEL,S,MAT,,1 $ ESEL,R,CENT,Z,(0.0+0.0007)/2 $ BFE,ALL,HGEN,1,84.0/4.375000000000001e-07 $ ALLSEL
TIME,1.889163736 $ KBC,1 $ AUTOTS,ON $ DELTIM,0.04375031712499999,0.0043750317125,0.17500126849999997 $ SOLVE
ESEL,S,MAT,,1 $ ESEL,R,CENT,Z,(0.0+0.0007)/2 $ BFE,ALL,HGEN,1,700.0/4.375000000000001e-07 $ ALLSEL
TIME,1.914697454 $ KBC,1 $ AUTOTS,ON $ DELTIM,0.003191714749999991,0.0003191714749999991,0.012766858999999964 $ SOLVE
ESEL,S,MAT,,1 $ ESEL,R,CENT,Z,(0.0+0.0007)/2 $ BFE,ALL,HGEN,1,84.0/4.375000000000001e-07 $ ALLSEL
TIME,2.264699991 $ KBC,1 $ AUTOTS,ON $ DELTIM,0.04375031712500002,0.004375031712500002,0.17500126850000008 $ SOLVE
ESEL,S,MAT,,1 $ ESEL,R,CENT,Z,(0.0+0.0007)/2 $ BFE,ALL,HGEN,1,140.0/4.375000000000001e-07 $ ALLSEL
TIME,2.26474709 $ KBC,1 $ AUTOTS,ON $ DELTIM,1.25e-05,1.25e-06,5e-05 $ SOLVE
ESEL,S,MAT,,1 $ ESEL,R,CENT,Z,(0.0+0.0007)/2 $ BFE,ALL,HGEN,1,140.0/4.375000000000001e-07 $ ALLSEL
TIME,2.264835981 $ KBC,1 $ AUTOTS,ON $ DELTIM,1.25e-05,1.25e-06,5e-05 $ SOLVE
ESEL,S,MAT,,1 $ ESEL,R,CENT,Z,(0.0+0.0007)/2 $ BFE,ALL,HGEN,1,84.0/4.375000000000001e-07 $ ALLSEL
TIME,2.614838518 $ KBC,1 $ AUTOTS,ON $ DELTIM,0.04375031712499999,0.0043750317125,0.17500126849999997 $ SOLVE
ESEL,S,MAT,,1 $ ESEL,R,CENT,Z,(0.0+0.0007)/2 $ BFE,ALL,HGEN,1,700.0/4.375000000000001e-07 $ ALLSEL
TIME,2.62886987 $ KBC,1 $ AUTOTS,ON $ DELTIM,0.0017539189999999927,0.00017539189999999928,0.007015675999999971 $ SOLVE
ESEL,S,MAT,,1 $ ESEL,R,CENT,Z,(0.0+0.0007)/2 $ BFE,ALL,HGEN,1,84.0/4.375000000000001e-07 $ ALLSEL
TIME,2.978872407 $ KBC,1 $ AUTOTS,ON $ DELTIM,0.04375031712499999,0.0043750317125,0.17500126849999997 $ SOLVE
ESEL,S,MAT,,1 $ ESEL,R,CENT,Z,(0.0+0.0007)/2 $ BFE,ALL,HGEN,1,280.0/4.375000000000001e-07 $ ALLSEL
TIME,2.979206026 $ KBC,1 $ AUTOTS,ON $ DELTIM,4.170237500000784e-05,4.170237500000784e-06,0.00016680950000003136 $ SOLVE
ESEL,S,MAT,,1 $ ESEL,R,CENT,Z,(0.0+0.0007)/2 $ BFE,ALL,HGEN,1,700.0/4.375000000000001e-07 $ ALLSEL
TIME,3.028518407 $ KBC,1 $ AUTOTS,ON $ DELTIM,0.006164047625000002,0.0006164047625000002,0.024656190500000008 $ SOLVE
ESEL,S,MAT,,1 $ ESEL,R,CENT,Z,(0.0+0.0007)/2 $ BFE,ALL,HGEN,1,700.0/4.375000000000001e-07 $ ALLSEL
TIME,3.05317231 $ KBC,1 $ AUTOTS,ON $ DELTIM,0.00308173787499999,0.00030817378749999904,0.01232695149999996 $ SOLVE
ESEL,S,MAT,,1 $ ESEL,R,CENT,Z,(0.0+0.0007)/2 $ BFE,ALL,HGEN,1,280.0/4.375000000000001e-07 $ ALLSEL
TIME,3.053420402 $ KBC,1 $ AUTOTS,ON $ DELTIM,3.101150000001107e-05,3.101150000001107e-06,0.0001240460000000443 $ SOLVE
ESEL,S,MAT,,1 $ ESEL,R,CENT,Z,(0.0+0.0007)/2 $ BFE,ALL,HGEN,1,84.0/4.375000000000001e-07 $ ALLSEL
TIME,3.403422939 $ KBC,1 $ AUTOTS,ON $ DELTIM,0.04375031712499999,0.0043750317125,0.17500126849999997 $ SOLVE
ESEL,S,MAT,,1 $ ESEL,R,CENT,Z,(0.0+0.0007)/2 $ BFE,ALL,HGEN,1,700.0/4.375000000000001e-07 $ ALLSEL
TIME,3.428956657 $ KBC,1 $ AUTOTS,ON $ DELTIM,0.0031917147500000187,0.0003191714750000019,0.012766859000000075 $ SOLVE
ESEL,S,MAT,,1 $ ESEL,R,CENT,Z,(0.0+0.0007)/2 $ BFE,ALL,HGEN,1,84.0/4.375000000000001e-07 $ ALLSEL
TIME,3.778959194 $ KBC,1 $ AUTOTS,ON $ DELTIM,0.04375031712499999,0.0043750317125,0.17500126849999997 $ SOLVE
ESEL,S,MAT,,1 $ ESEL,R,CENT,Z,(0.0+0.0007)/2 $ BFE,ALL,HGEN,1,140.0/4.375000000000001e-07 $ ALLSEL
TIME,3.779006293 $ KBC,1 $ AUTOTS,ON $ DELTIM,1.25e-05,1.25e-06,5e-05 $ SOLVE
ESEL,S,MAT,,1 $ ESEL,R,CENT,Z,(0.0+0.0007)/2 $ BFE,ALL,HGEN,1,140.0/4.375000000000001e-07 $ ALLSEL
TIME,3.779095185 $ KBC,1 $ AUTOTS,ON $ DELTIM,1.25e-05,1.25e-06,5e-05 $ SOLVE
ESEL,S,MAT,,1 $ ESEL,R,CENT,Z,(0.0+0.0007)/2 $ BFE,ALL,HGEN,1,84.0/4.375000000000001e-07 $ ALLSEL
TIME,4.129097722 $ KBC,1 $ AUTOTS,ON $ DELTIM,0.04375031712499999,0.0043750317125,0.17500126849999997 $ SOLVE
ESEL,S,MAT,,1 $ ESEL,R,CENT,Z,(0.0+0.0007)/2 $ BFE,ALL,HGEN,1,700.0/4.375000000000001e-07 $ ALLSEL
TIME,4.143129074 $ KBC,1 $ AUTOTS,ON $ DELTIM,0.0017539189999999927,0.00017539189999999928,0.007015675999999971 $ SOLVE
ESEL,S,MAT,,1 $ ESEL,R,CENT,Z,(0.0+0.0007)/2 $ BFE,ALL,HGEN,1,84.0/4.375000000000001e-07 $ ALLSEL
TIME,4.493131611 $ KBC,1 $ AUTOTS,ON $ DELTIM,0.04375031712499999,0.0043750317125,0.17500126849999997 $ SOLVE
ESEL,S,MAT,,1 $ ESEL,R,CENT,Z,(0.0+0.0007)/2 $ BFE,ALL,HGEN,1,280.0/4.375000000000001e-07 $ ALLSEL
TIME,4.493465229 $ KBC,1 $ AUTOTS,ON $ DELTIM,4.17022499999975e-05,4.17022499999975e-06,0.00016680899999999 $ SOLVE
ESEL,S,MAT,,1 $ ESEL,R,CENT,Z,(0.0+0.0007)/2 $ BFE,ALL,HGEN,1,700.0/4.375000000000001e-07 $ ALLSEL
TIME,4.54277761 $ KBC,1 $ AUTOTS,ON $ DELTIM,0.006164047625000002,0.0006164047625000002,0.024656190500000008 $ SOLVE
ESEL,S,MAT,,1 $ ESEL,R,CENT,Z,(0.0+0.0007)/2 $ BFE,ALL,HGEN,1,700.0/4.375000000000001e-07 $ ALLSEL
TIME,4.567431513 $ KBC,1 $ AUTOTS,ON $ DELTIM,0.00308173787499999,0.00030817378749999904,0.01232695149999996 $ SOLVE
ESEL,S,MAT,,1 $ ESEL,R,CENT,Z,(0.0+0.0007)/2 $ BFE,ALL,HGEN,1,280.0/4.375000000000001e-07 $ ALLSEL
TIME,4.567679606 $ KBC,1 $ AUTOTS,ON $ DELTIM,3.10116249999659e-05,3.1011624999965902e-06,0.0001240464999998636 $ SOLVE
ESEL,S,MAT,,1 $ ESEL,R,CENT,Z,(0.0+0.0007)/2 $ BFE,ALL,HGEN,1,84.0/4.375000000000001e-07 $ ALLSEL
TIME,4.917682143 $ KBC,1 $ AUTOTS,ON $ DELTIM,0.043750317125000104,0.00437503171250001,0.17500126850000042 $ SOLVE
ESEL,S,MAT,,1 $ ESEL,R,CENT,Z,(0.0+0.0007)/2 $ BFE,ALL,HGEN,1,700.0/4.375000000000001e-07 $ ALLSEL
TIME,4.94321586 $ KBC,1 $ AUTOTS,ON $ DELTIM,0.0031917146249998973,0.00031917146249998973,0.01276685849999959 $ SOLVE
ESEL,S,MAT,,1 $ ESEL,R,CENT,Z,(0.0+0.0007)/2 $ BFE,ALL,HGEN,1,84.0/4.375000000000001e-07 $ ALLSEL
TIME,5.293218397 $ KBC,1 $ AUTOTS,ON $ DELTIM,0.043750317125000104,0.00437503171250001,0.17500126850000042 $ SOLVE
ESEL,S,MAT,,1 $ ESEL,R,CENT,Z,(0.0+0.0007)/2 $ BFE,ALL,HGEN,1,140.0/4.375000000000001e-07 $ ALLSEL
TIME,5.293265497 $ KBC,1 $ AUTOTS,ON $ DELTIM,1.25e-05,1.25e-06,5e-05 $ SOLVE
ESEL,S,MAT,,1 $ ESEL,R,CENT,Z,(0.0+0.0007)/2 $ BFE,ALL,HGEN,1,140.0/4.375000000000001e-07 $ ALLSEL
TIME,5.293354388 $ KBC,1 $ AUTOTS,ON $ DELTIM,1.25e-05,1.25e-06,5e-05 $ SOLVE
ESEL,S,MAT,,1 $ ESEL,R,CENT,Z,(0.0+0.0007)/2 $ BFE,ALL,HGEN,1,84.0/4.375000000000001e-07 $ ALLSEL
TIME,5.643356925 $ KBC,1 $ AUTOTS,ON $ DELTIM,0.04375031712499999,0.0043750317125,0.17500126849999997 $ SOLVE
ESEL,S,MAT,,1 $ ESEL,R,CENT,Z,(0.0+0.0007)/2 $ BFE,ALL,HGEN,1,700.0/4.375000000000001e-07 $ ALLSEL
TIME,5.657388277 $ KBC,1 $ AUTOTS,ON $ DELTIM,0.0017539189999999927,0.00017539189999999928,0.007015675999999971 $ SOLVE
ESEL,S,MAT,,1 $ ESEL,R,CENT,Z,(0.0+0.0007)/2 $ BFE,ALL,HGEN,1,84.0/4.375000000000001e-07 $ ALLSEL
TIME,6.007390814 $ KBC,1 $ AUTOTS,ON $ DELTIM,0.04375031712499999,0.0043750317125,0.17500126849999997 $ SOLVE
ESEL,S,MAT,,1 $ ESEL,R,CENT,Z,(0.0+0.0007)/2 $ BFE,ALL,HGEN,1,280.0/4.375000000000001e-07 $ ALLSEL
TIME,6.007724432 $ KBC,1 $ AUTOTS,ON $ DELTIM,4.17022499999975e-05,4.17022499999975e-06,0.00016680899999999 $ SOLVE
ESEL,S,MAT,,1 $ ESEL,R,CENT,Z,(0.0+0.0007)/2 $ BFE,ALL,HGEN,1,700.0/4.375000000000001e-07 $ ALLSEL
TIME,6.057036814 $ KBC,1 $ AUTOTS,ON $ DELTIM,0.006164047750000012,0.0006164047750000012,0.02465619100000005 $ SOLVE
ESEL,S,MAT,,1 $ ESEL,R,CENT,Z,(0.0+0.0007)/2 $ BFE,ALL,HGEN,1,700.0/4.375000000000001e-07 $ ALLSEL
TIME,6.081690716 $ KBC,1 $ AUTOTS,ON $ DELTIM,0.00308173774999998,0.000308173774999998,0.01232695099999992 $ SOLVE
ESEL,S,MAT,,1 $ ESEL,R,CENT,Z,(0.0+0.0007)/2 $ BFE,ALL,HGEN,1,280.0/4.375000000000001e-07 $ ALLSEL
TIME,6.081938809 $ KBC,1 $ AUTOTS,ON $ DELTIM,3.1011625000076926e-05,3.1011625000076927e-06,0.0001240465000003077 $ SOLVE
ESEL,S,MAT,,1 $ ESEL,R,CENT,Z,(0.0+0.0007)/2 $ BFE,ALL,HGEN,1,84.0/4.375000000000001e-07 $ ALLSEL
TIME,6.431941346 $ KBC,1 $ AUTOTS,ON $ DELTIM,0.04375031712499999,0.0043750317125,0.17500126849999997 $ SOLVE
ESEL,S,MAT,,1 $ ESEL,R,CENT,Z,(0.0+0.0007)/2 $ BFE,ALL,HGEN,1,700.0/4.375000000000001e-07 $ ALLSEL
TIME,6.457475064 $ KBC,1 $ AUTOTS,ON $ DELTIM,0.0031917147499999077,0.00031917147499999077,0.01276685899999963 $ SOLVE
ESEL,S,MAT,,1 $ ESEL,R,CENT,Z,(0.0+0.0007)/2 $ BFE,ALL,HGEN,1,84.0/4.375000000000001e-07 $ ALLSEL
TIME,6.807477601 $ KBC,1 $ AUTOTS,ON $ DELTIM,0.043750317125000104,0.00437503171250001,0.17500126850000042 $ SOLVE
ESEL,S,MAT,,1 $ ESEL,R,CENT,Z,(0.0+0.0007)/2 $ BFE,ALL,HGEN,1,140.0/4.375000000000001e-07 $ ALLSEL
TIME,6.8075247 $ KBC,1 $ AUTOTS,ON $ DELTIM,1.25e-05,1.25e-06,5e-05 $ SOLVE
ESEL,S,MAT,,1 $ ESEL,R,CENT,Z,(0.0+0.0007)/2 $ BFE,ALL,HGEN,1,140.0/4.375000000000001e-07 $ ALLSEL
TIME,6.807613592 $ KBC,1 $ AUTOTS,ON $ DELTIM,1.25e-05,1.25e-06,5e-05 $ SOLVE
ESEL,S,MAT,,1 $ ESEL,R,CENT,Z,(0.0+0.0007)/2 $ BFE,ALL,HGEN,1,84.0/4.375000000000001e-07 $ ALLSEL
TIME,7.157616129 $ KBC,1 $ AUTOTS,ON $ DELTIM,0.04375031712499999,0.0043750317125,0.17500126849999997 $ SOLVE
ESEL,S,MAT,,1 $ ESEL,R,CENT,Z,(0.0+0.0007)/2 $ BFE,ALL,HGEN,1,700.0/4.375000000000001e-07 $ ALLSEL
TIME,7.17164748 $ KBC,1 $ AUTOTS,ON $ DELTIM,0.0017539188749999823,0.00017539188749999824,0.007015675499999929 $ SOLVE
ESEL,S,MAT,,1 $ ESEL,R,CENT,Z,(0.0+0.0007)/2 $ BFE,ALL,HGEN,1,84.0/4.375000000000001e-07 $ ALLSEL
TIME,7.521650017 $ KBC,1 $ AUTOTS,ON $ DELTIM,0.04375031712499999,0.0043750317125,0.17500126849999997 $ SOLVE
ESEL,S,MAT,,1 $ ESEL,R,CENT,Z,(0.0+0.0007)/2 $ BFE,ALL,HGEN,1,280.0/4.375000000000001e-07 $ ALLSEL
TIME,7.521983636 $ KBC,1 $ AUTOTS,ON $ DELTIM,4.170237500000784e-05,4.170237500000784e-06,0.00016680950000003136 $ SOLVE
ESEL,S,MAT,,1 $ ESEL,R,CENT,Z,(0.0+0.0007)/2 $ BFE,ALL,HGEN,1,700.0/4.375000000000001e-07 $ ALLSEL
TIME,7.571296017 $ KBC,1 $ AUTOTS,ON $ DELTIM,0.006164047625000002,0.0006164047625000002,0.024656190500000008 $ SOLVE
ESEL,S,MAT,,1 $ ESEL,R,CENT,Z,(0.0+0.0007)/2 $ BFE,ALL,HGEN,1,700.0/4.375000000000001e-07 $ ALLSEL
TIME,7.59594992 $ KBC,1 $ AUTOTS,ON $ DELTIM,0.00308173787499999,0.00030817378749999904,0.01232695149999996 $ SOLVE
ESEL,S,MAT,,1 $ ESEL,R,CENT,Z,(0.0+0.0007)/2 $ BFE,ALL,HGEN,1,280.0/4.375000000000001e-07 $ ALLSEL
TIME,7.596198013 $ KBC,1 $ AUTOTS,ON $ DELTIM,3.1011625000076926e-05,3.1011625000076927e-06,0.0001240465000003077 $ SOLVE
ESEL,S,MAT,,1 $ ESEL,R,CENT,Z,(0.0+0.0007)/2 $ BFE,ALL,HGEN,1,84.0/4.375000000000001e-07 $ ALLSEL
TIME,7.94620055 $ KBC,1 $ AUTOTS,ON $ DELTIM,0.04375031712499999,0.0043750317125,0.17500126849999997 $ SOLVE
ESEL,S,MAT,,1 $ ESEL,R,CENT,Z,(0.0+0.0007)/2 $ BFE,ALL,HGEN,1,700.0/4.375000000000001e-07 $ ALLSEL
TIME,7.971734267 $ KBC,1 $ AUTOTS,ON $ DELTIM,0.0031917146250000084,0.00031917146250000085,0.012766858500000033 $ SOLVE
ESEL,S,MAT,,1 $ ESEL,R,CENT,Z,(0.0+0.0007)/2 $ BFE,ALL,HGEN,1,84.0/4.375000000000001e-07 $ ALLSEL
TIME,8.321736804 $ KBC,1 $ AUTOTS,ON $ DELTIM,0.04375031712499999,0.0043750317125,0.17500126849999997 $ SOLVE
ESEL,S,MAT,,1 $ ESEL,R,CENT,Z,(0.0+0.0007)/2 $ BFE,ALL,HGEN,1,140.0/4.375000000000001e-07 $ ALLSEL
TIME,8.321783904 $ KBC,1 $ AUTOTS,ON $ DELTIM,1.25e-05,1.25e-06,5e-05 $ SOLVE
ESEL,S,MAT,,1 $ ESEL,R,CENT,Z,(0.0+0.0007)/2 $ BFE,ALL,HGEN,1,140.0/4.375000000000001e-07 $ ALLSEL
TIME,8.321872795 $ KBC,1 $ AUTOTS,ON $ DELTIM,1.25e-05,1.25e-06,5e-05 $ SOLVE
ESEL,S,MAT,,1 $ ESEL,R,CENT,Z,(0.0+0.0007)/2 $ BFE,ALL,HGEN,1,84.0/4.375000000000001e-07 $ ALLSEL
TIME,8.671875332 $ KBC,1 $ AUTOTS,ON $ DELTIM,0.04375031712499999,0.0043750317125,0.17500126849999997 $ SOLVE
ESEL,S,MAT,,1 $ ESEL,R,CENT,Z,(0.0+0.0007)/2 $ BFE,ALL,HGEN,1,700.0/4.375000000000001e-07 $ ALLSEL
TIME,8.685906684 $ KBC,1 $ AUTOTS,ON $ DELTIM,0.0017539189999999927,0.00017539189999999928,0.007015675999999971 $ SOLVE
ESEL,S,MAT,,1 $ ESEL,R,CENT,Z,(0.0+0.0007)/2 $ BFE,ALL,HGEN,1,84.0/4.375000000000001e-07 $ ALLSEL
TIME,9.035909221 $ KBC,1 $ AUTOTS,ON $ DELTIM,0.04375031712499999,0.0043750317125,0.17500126849999997 $ SOLVE
ESEL,S,MAT,,1 $ ESEL,R,CENT,Z,(0.0+0.0007)/2 $ BFE,ALL,HGEN,1,280.0/4.375000000000001e-07 $ ALLSEL
TIME,9.036242839 $ KBC,1 $ AUTOTS,ON $ DELTIM,4.1702249999886476e-05,4.170224999988648e-06,0.0001668089999995459 $ SOLVE
ESEL,S,MAT,,1 $ ESEL,R,CENT,Z,(0.0+0.0007)/2 $ BFE,ALL,HGEN,1,700.0/4.375000000000001e-07 $ ALLSEL
TIME,9.08555522 $ KBC,1 $ AUTOTS,ON $ DELTIM,0.006164047625000002,0.0006164047625000002,0.024656190500000008 $ SOLVE
ESEL,S,MAT,,1 $ ESEL,R,CENT,Z,(0.0+0.0007)/2 $ BFE,ALL,HGEN,1,700.0/4.375000000000001e-07 $ ALLSEL
TIME,9.110209123 $ KBC,1 $ AUTOTS,ON $ DELTIM,0.003081737875000101,0.0003081737875000101,0.012326951500000405 $ SOLVE
ESEL,S,MAT,,1 $ ESEL,R,CENT,Z,(0.0+0.0007)/2 $ BFE,ALL,HGEN,1,280.0/4.375000000000001e-07 $ ALLSEL
TIME,9.110457216 $ KBC,1 $ AUTOTS,ON $ DELTIM,3.10116249999659e-05,3.1011624999965902e-06,0.0001240464999998636 $ SOLVE
ESEL,S,MAT,,1 $ ESEL,R,CENT,Z,(0.0+0.0007)/2 $ BFE,ALL,HGEN,1,84.0/4.375000000000001e-07 $ ALLSEL
TIME,9.460459753 $ KBC,1 $ AUTOTS,ON $ DELTIM,0.04375031712499999,0.0043750317125,0.17500126849999997 $ SOLVE
ESEL,S,MAT,,1 $ ESEL,R,CENT,Z,(0.0+0.0007)/2 $ BFE,ALL,HGEN,1,700.0/4.375000000000001e-07 $ ALLSEL
TIME,9.485993471 $ KBC,1 $ AUTOTS,ON $ DELTIM,0.0031917147500000187,0.0003191714750000019,0.012766859000000075 $ SOLVE
ESEL,S,MAT,,1 $ ESEL,R,CENT,Z,(0.0+0.0007)/2 $ BFE,ALL,HGEN,1,84.0/4.375000000000001e-07 $ ALLSEL
TIME,9.835996008 $ KBC,1 $ AUTOTS,ON $ DELTIM,0.04375031712499999,0.0043750317125,0.17500126849999997 $ SOLVE
ESEL,S,MAT,,1 $ ESEL,R,CENT,Z,(0.0+0.0007)/2 $ BFE,ALL,HGEN,1,140.0/4.375000000000001e-07 $ ALLSEL
TIME,9.836043107 $ KBC,1 $ AUTOTS,ON $ DELTIM,1.25e-05,1.25e-06,5e-05 $ SOLVE
ESEL,S,MAT,,1 $ ESEL,R,CENT,Z,(0.0+0.0007)/2 $ BFE,ALL,HGEN,1,140.0/4.375000000000001e-07 $ ALLSEL
TIME,9.836131998 $ KBC,1 $ AUTOTS,ON $ DELTIM,1.25e-05,1.25e-06,5e-05 $ SOLVE
ESEL,S,MAT,,1 $ ESEL,R,CENT,Z,(0.0+0.0007)/2 $ BFE,ALL,HGEN,1,84.0/4.375000000000001e-07 $ ALLSEL
TIME,10.186134535 $ KBC,1 $ AUTOTS,ON $ DELTIM,0.04375031712499999,0.0043750317125,0.17500126849999997 $ SOLVE
ESEL,S,MAT,,1 $ ESEL,R,CENT,Z,(0.0+0.0007)/2 $ BFE,ALL,HGEN,1,700.0/4.375000000000001e-07 $ ALLSEL
TIME,10.200165887 $ KBC,1 $ AUTOTS,ON $ DELTIM,0.0017539189999999927,0.00017539189999999928,0.007015675999999971 $ SOLVE
ESEL,S,MAT,,1 $ ESEL,R,CENT,Z,(0.0+0.0007)/2 $ BFE,ALL,HGEN,1,84.0/4.375000000000001e-07 $ ALLSEL
TIME,10.550168424 $ KBC,1 $ AUTOTS,ON $ DELTIM,0.04375031712499999,0.0043750317125,0.17500126849999997 $ SOLVE
ESEL,S,MAT,,1 $ ESEL,R,CENT,Z,(0.0+0.0007)/2 $ BFE,ALL,HGEN,1,280.0/4.375000000000001e-07 $ ALLSEL
TIME,10.550502043 $ KBC,1 $ AUTOTS,ON $ DELTIM,4.170237499989682e-05,4.170237499989682e-06,0.00016680949999958727 $ SOLVE
ESEL,S,MAT,,1 $ ESEL,R,CENT,Z,(0.0+0.0007)/2 $ BFE,ALL,HGEN,1,700.0/4.375000000000001e-07 $ ALLSEL
TIME,10.599814424 $ KBC,1 $ AUTOTS,ON $ DELTIM,0.006164047625000002,0.0006164047625000002,0.024656190500000008 $ SOLVE
ESEL,S,MAT,,1 $ ESEL,R,CENT,Z,(0.0+0.0007)/2 $ BFE,ALL,HGEN,1,700.0/4.375000000000001e-07 $ ALLSEL
TIME,10.624468327 $ KBC,1 $ AUTOTS,ON $ DELTIM,0.003081737875000101,0.0003081737875000101,0.012326951500000405 $ SOLVE
ESEL,S,MAT,,1 $ ESEL,R,CENT,Z,(0.0+0.0007)/2 $ BFE,ALL,HGEN,1,280.0/4.375000000000001e-07 $ ALLSEL
TIME,10.624716419 $ KBC,1 $ AUTOTS,ON $ DELTIM,3.101149999995556e-05,3.101149999995556e-06,0.00012404599999982224 $ SOLVE
ESEL,S,MAT,,1 $ ESEL,R,CENT,Z,(0.0+0.0007)/2 $ BFE,ALL,HGEN,1,84.0/4.375000000000001e-07 $ ALLSEL
TIME,10.974718956 $ KBC,1 $ AUTOTS,ON $ DELTIM,0.04375031712499999,0.0043750317125,0.17500126849999997 $ SOLVE
ESEL,S,MAT,,1 $ ESEL,R,CENT,Z,(0.0+0.0007)/2 $ BFE,ALL,HGEN,1,700.0/4.375000000000001e-07 $ ALLSEL
TIME,11.000252674 $ KBC,1 $ AUTOTS,ON $ DELTIM,0.0031917147500000187,0.0003191714750000019,0.012766859000000075 $ SOLVE
ESEL,S,MAT,,1 $ ESEL,R,CENT,Z,(0.0+0.0007)/2 $ BFE,ALL,HGEN,1,84.0/4.375000000000001e-07 $ ALLSEL
TIME,11.350255211 $ KBC,1 $ AUTOTS,ON $ DELTIM,0.04375031712499999,0.0043750317125,0.17500126849999997 $ SOLVE
ESEL,S,MAT,,1 $ ESEL,R,CENT,Z,(0.0+0.0007)/2 $ BFE,ALL,HGEN,1,140.0/4.375000000000001e-07 $ ALLSEL
TIME,11.35030231 $ KBC,1 $ AUTOTS,ON $ DELTIM,1.25e-05,1.25e-06,5e-05 $ SOLVE
ESEL,S,MAT,,1 $ ESEL,R,CENT,Z,(0.0+0.0007)/2 $ BFE,ALL,HGEN,1,140.0/4.375000000000001e-07 $ ALLSEL
TIME,11.350391202 $ KBC,1 $ AUTOTS,ON $ DELTIM,1.25e-05,1.25e-06,5e-05 $ SOLVE
ESEL,S,MAT,,1 $ ESEL,R,CENT,Z,(0.0+0.0007)/2 $ BFE,ALL,HGEN,1,84.0/4.375000000000001e-07 $ ALLSEL
TIME,11.700393739 $ KBC,1 $ AUTOTS,ON $ DELTIM,0.04375031712499999,0.0043750317125,0.17500126849999997 $ SOLVE
ESEL,S,MAT,,1 $ ESEL,R,CENT,Z,(0.0+0.0007)/2 $ BFE,ALL,HGEN,1,700.0/4.375000000000001e-07 $ ALLSEL
TIME,11.714425091 $ KBC,1 $ AUTOTS,ON $ DELTIM,0.0017539189999999927,0.00017539189999999928,0.007015675999999971 $ SOLVE
ESEL,S,MAT,,1 $ ESEL,R,CENT,Z,(0.0+0.0007)/2 $ BFE,ALL,HGEN,1,84.0/4.375000000000001e-07 $ ALLSEL
TIME,12.064427628 $ KBC,1 $ AUTOTS,ON $ DELTIM,0.04375031712499999,0.0043750317125,0.17500126849999997 $ SOLVE
ESEL,S,MAT,,1 $ ESEL,R,CENT,Z,(0.0+0.0007)/2 $ BFE,ALL,HGEN,1,280.0/4.375000000000001e-07 $ ALLSEL
TIME,12.064761246 $ KBC,1 $ AUTOTS,ON $ DELTIM,4.1702249999886476e-05,4.170224999988648e-06,0.0001668089999995459 $ SOLVE
ESEL,S,MAT,,1 $ ESEL,R,CENT,Z,(0.0+0.0007)/2 $ BFE,ALL,HGEN,1,700.0/4.375000000000001e-07 $ ALLSEL
TIME,12.114073627 $ KBC,1 $ AUTOTS,ON $ DELTIM,0.006164047625000002,0.0006164047625000002,0.024656190500000008 $ SOLVE
ESEL,S,MAT,,1 $ ESEL,R,CENT,Z,(0.0+0.0007)/2 $ BFE,ALL,HGEN,1,700.0/4.375000000000001e-07 $ ALLSEL
TIME,12.13872753 $ KBC,1 $ AUTOTS,ON $ DELTIM,0.003081737875000101,0.0003081737875000101,0.012326951500000405 $ SOLVE
ESEL,S,MAT,,1 $ ESEL,R,CENT,Z,(0.0+0.0007)/2 $ BFE,ALL,HGEN,1,280.0/4.375000000000001e-07 $ ALLSEL
TIME,12.138975623 $ KBC,1 $ AUTOTS,ON $ DELTIM,3.10116249999659e-05,3.1011624999965902e-06,0.0001240464999998636 $ SOLVE
ESEL,S,MAT,,1 $ ESEL,R,CENT,Z,(0.0+0.0007)/2 $ BFE,ALL,HGEN,1,84.0/4.375000000000001e-07 $ ALLSEL
TIME,12.48897816 $ KBC,1 $ AUTOTS,ON $ DELTIM,0.04375031712499999,0.0043750317125,0.17500126849999997 $ SOLVE
ESEL,S,MAT,,1 $ ESEL,R,CENT,Z,(0.0+0.0007)/2 $ BFE,ALL,HGEN,1,700.0/4.375000000000001e-07 $ ALLSEL
TIME,12.514511877 $ KBC,1 $ AUTOTS,ON $ DELTIM,0.0031917146250000084,0.00031917146250000085,0.012766858500000033 $ SOLVE
ESEL,S,MAT,,1 $ ESEL,R,CENT,Z,(0.0+0.0007)/2 $ BFE,ALL,HGEN,1,84.0/4.375000000000001e-07 $ ALLSEL
TIME,12.864514414 $ KBC,1 $ AUTOTS,ON $ DELTIM,0.04375031712499999,0.0043750317125,0.17500126849999997 $ SOLVE
ESEL,S,MAT,,1 $ ESEL,R,CENT,Z,(0.0+0.0007)/2 $ BFE,ALL,HGEN,1,140.0/4.375000000000001e-07 $ ALLSEL
TIME,12.864561514 $ KBC,1 $ AUTOTS,ON $ DELTIM,1.25e-05,1.25e-06,5e-05 $ SOLVE
ESEL,S,MAT,,1 $ ESEL,R,CENT,Z,(0.0+0.0007)/2 $ BFE,ALL,HGEN,1,140.0/4.375000000000001e-07 $ ALLSEL
TIME,12.864650405 $ KBC,1 $ AUTOTS,ON $ DELTIM,1.25e-05,1.25e-06,5e-05 $ SOLVE
ESEL,S,MAT,,1 $ ESEL,R,CENT,Z,(0.0+0.0007)/2 $ BFE,ALL,HGEN,1,84.0/4.375000000000001e-07 $ ALLSEL
TIME,13.214652942 $ KBC,1 $ AUTOTS,ON $ DELTIM,0.04375031712499999,0.0043750317125,0.17500126849999997 $ SOLVE
ESEL,S,MAT,,1 $ ESEL,R,CENT,Z,(0.0+0.0007)/2 $ BFE,ALL,HGEN,1,700.0/4.375000000000001e-07 $ ALLSEL
TIME,13.228684294 $ KBC,1 $ AUTOTS,ON $ DELTIM,0.0017539189999999927,0.00017539189999999928,0.007015675999999971 $ SOLVE
ESEL,S,MAT,,1 $ ESEL,R,CENT,Z,(0.0+0.0007)/2 $ BFE,ALL,HGEN,1,84.0/4.375000000000001e-07 $ ALLSEL
TIME,13.578686831 $ KBC,1 $ AUTOTS,ON $ DELTIM,0.04375031712499999,0.0043750317125,0.17500126849999997 $ SOLVE
ESEL,S,MAT,,1 $ ESEL,R,CENT,Z,(0.0+0.0007)/2 $ BFE,ALL,HGEN,1,280.0/4.375000000000001e-07 $ ALLSEL
TIME,13.579020449 $ KBC,1 $ AUTOTS,ON $ DELTIM,4.1702249999886476e-05,4.170224999988648e-06,0.0001668089999995459 $ SOLVE
ESEL,S,MAT,,1 $ ESEL,R,CENT,Z,(0.0+0.0007)/2 $ BFE,ALL,HGEN,1,700.0/4.375000000000001e-07 $ ALLSEL
TIME,13.628332831 $ KBC,1 $ AUTOTS,ON $ DELTIM,0.006164047750000012,0.0006164047750000012,0.02465619100000005 $ SOLVE
ESEL,S,MAT,,1 $ ESEL,R,CENT,Z,(0.0+0.0007)/2 $ BFE,ALL,HGEN,1,700.0/4.375000000000001e-07 $ ALLSEL
TIME,13.652986733 $ KBC,1 $ AUTOTS,ON $ DELTIM,0.003081737750000091,0.00030817377500000907,0.012326951000000363 $ SOLVE
ESEL,S,MAT,,1 $ ESEL,R,CENT,Z,(0.0+0.0007)/2 $ BFE,ALL,HGEN,1,280.0/4.375000000000001e-07 $ ALLSEL
TIME,13.653234826 $ KBC,1 $ AUTOTS,ON $ DELTIM,3.10116249999659e-05,3.1011624999965902e-06,0.0001240464999998636 $ SOLVE
ESEL,S,MAT,,1 $ ESEL,R,CENT,Z,(0.0+0.0007)/2 $ BFE,ALL,HGEN,1,84.0/4.375000000000001e-07 $ ALLSEL
TIME,14.003237363 $ KBC,1 $ AUTOTS,ON $ DELTIM,0.04375031712499999,0.0043750317125,0.17500126849999997 $ SOLVE
ESEL,S,MAT,,1 $ ESEL,R,CENT,Z,(0.0+0.0007)/2 $ BFE,ALL,HGEN,1,700.0/4.375000000000001e-07 $ ALLSEL
TIME,14.028771081 $ KBC,1 $ AUTOTS,ON $ DELTIM,0.0031917147500000187,0.0003191714750000019,0.012766859000000075 $ SOLVE
ESEL,S,MAT,,1 $ ESEL,R,CENT,Z,(0.0+0.0007)/2 $ BFE,ALL,HGEN,1,84.0/4.375000000000001e-07 $ ALLSEL
TIME,14.378773618 $ KBC,1 $ AUTOTS,ON $ DELTIM,0.04375031712499999,0.0043750317125,0.17500126849999997 $ SOLVE
ESEL,S,MAT,,1 $ ESEL,R,CENT,Z,(0.0+0.0007)/2 $ BFE,ALL,HGEN,1,140.0/4.375000000000001e-07 $ ALLSEL
TIME,14.378820717 $ KBC,1 $ AUTOTS,ON $ DELTIM,1.25e-05,1.25e-06,5e-05 $ SOLVE
ESEL,S,MAT,,1 $ ESEL,R,CENT,Z,(0.0+0.0007)/2 $ BFE,ALL,HGEN,1,140.0/4.375000000000001e-07 $ ALLSEL
TIME,14.378909609 $ KBC,1 $ AUTOTS,ON $ DELTIM,1.25e-05,1.25e-06,5e-05 $ SOLVE
ESEL,S,MAT,,1 $ ESEL,R,CENT,Z,(0.0+0.0007)/2 $ BFE,ALL,HGEN,1,84.0/4.375000000000001e-07 $ ALLSEL
TIME,14.728912146 $ KBC,1 $ AUTOTS,ON $ DELTIM,0.04375031712499999,0.0043750317125,0.17500126849999997 $ SOLVE
ESEL,S,MAT,,1 $ ESEL,R,CENT,Z,(0.0+0.0007)/2 $ BFE,ALL,HGEN,1,700.0/4.375000000000001e-07 $ ALLSEL
TIME,14.742943497 $ KBC,1 $ AUTOTS,ON $ DELTIM,0.0017539188749999823,0.00017539188749999824,0.007015675499999929 $ SOLVE
ESEL,S,MAT,,1 $ ESEL,R,CENT,Z,(0.0+0.0007)/2 $ BFE,ALL,HGEN,1,84.0/4.375000000000001e-07 $ ALLSEL
TIME,15.092946034 $ KBC,1 $ AUTOTS,ON $ DELTIM,0.04375031712499999,0.0043750317125,0.17500126849999997 $ SOLVE
ESEL,S,MAT,,1 $ ESEL,R,CENT,Z,(0.0+0.0007)/2 $ BFE,ALL,HGEN,1,280.0/4.375000000000001e-07 $ ALLSEL
TIME,15.093279653 $ KBC,1 $ AUTOTS,ON $ DELTIM,4.170237499989682e-05,4.170237499989682e-06,0.00016680949999958727 $ SOLVE
ESEL,S,MAT,,1 $ ESEL,R,CENT,Z,(0.0+0.0007)/2 $ BFE,ALL,HGEN,1,700.0/4.375000000000001e-07 $ ALLSEL
TIME,15.142592034 $ KBC,1 $ AUTOTS,ON $ DELTIM,0.006164047625000002,0.0006164047625000002,0.024656190500000008 $ SOLVE
FINISH

/POST26
NUMVAR,200
NSOL,2,NMON,TEMP
/OUTPUT,qwenmoe_pic_transient_L24,csv
PRVAR,2
/OUTPUT
FINISH
